/BATCH
/CLEAR,START
/TITLE,CubeSat 2021 conduction and radiation
/PREP7
ET,1,SOLID278
TOFFST,0
STEF,5.670374419E-8
MP,DENS,1,2325
MP,C,1,1103
MP,KXX,1,1.03
MP,DENS,2,2810
MP,C,2,948
MP,KXX,2,140
MP,DENS,3,2120
MP,C,3,975
MP,KXX,3,0.768
MP,DENS,4,2247
MP,C,4,1110
MP,KXX,4,23
N,1,0,0,0
N,2,0.002,0,0
N,3,0.002,0.002,0
N,4,0,0.002,0
N,5,0,0,0.002
N,6,0.002,0,0.002
N,7,0.002,0.002,0.002
N,8,0,0.002,0.002
N,9,0.005,0,0
N,10,0.005,0.002,0
N,11,0.005,0,0.002
N,12,0.005,0.002,0.002
N,13,0.007,0,0
N,14,0.007,0.002,0
N,15,0.007,0,0.002
N,16,0.007,0.002,0.002
N,17,0.01,0,0
N,18,0.01,0.002,0
N,19,0.01,0,0.002
N,20,0.01,0.002,0.002
N,21,0.015,0,0
N,22,0.015,0.002,0
N,23,0.015,0,0.002
N,24,0.015,0.002,0.002
N,25,0.02,0,0
N,26,0.02,0.002,0
N,27,0.02,0,0.002
N,28,0.02,0.002,0.002
N,29,0.035,0,0
N,30,0.035,0.002,0
N,31,0.035,0,0.002
N,32,0.035,0.002,0.002
N,33,0.05,0,0
N,34,0.05,0.002,0
N,35,0.05,0,0.002
N,36,0.05,0.002,0.002
N,37,0.065,0,0
N,38,0.065,0.002,0
N,39,0.065,0,0.002
N,40,0.065,0.002,0.002
N,41,0.08,0,0
N,42,0.08,0.002,0
N,43,0.08,0,0.002
N,44,0.08,0.002,0.002
N,45,0.085,0,0
N,46,0.085,0.002,0
N,47,0.085,0,0.002
N,48,0.085,0.002,0.002
N,49,0.09,0,0
N,50,0.09,0.002,0
N,51,0.09,0,0.002
N,52,0.09,0.002,0.002
N,53,0.093,0,0
N,54,0.093,0.002,0
N,55,0.093,0,0.002
N,56,0.093,0.002,0.002
N,57,0.095,0,0
N,58,0.095,0.002,0
N,59,0.095,0,0.002
N,60,0.095,0.002,0.002
N,61,0.098,0,0
N,62,0.098,0.002,0
N,63,0.098,0,0.002
N,64,0.098,0.002,0.002
N,65,0.1,0,0
N,66,0.1,0.002,0
N,67,0.1,0,0.002
N,68,0.1,0.002,0.002
N,69,0.002,0.005,0
N,70,0,0.005,0
N,71,0.002,0.005,0.002
N,72,0,0.005,0.002
N,73,0.005,0.005,0
N,74,0.005,0.005,0.002
N,75,0.007,0.005,0
N,76,0.007,0.005,0.002
N,77,0.01,0.005,0
N,78,0.01,0.005,0.002
N,79,0.015,0.005,0
N,80,0.015,0.005,0.002
N,81,0.02,0.005,0
N,82,0.02,0.005,0.002
N,83,0.035,0.005,0
N,84,0.035,0.005,0.002
N,85,0.05,0.005,0
N,86,0.05,0.005,0.002
N,87,0.065,0.005,0
N,88,0.065,0.005,0.002
N,89,0.08,0.005,0
N,90,0.08,0.005,0.002
N,91,0.085,0.005,0
N,92,0.085,0.005,0.002
N,93,0.09,0.005,0
N,94,0.09,0.005,0.002
N,95,0.093,0.005,0
N,96,0.093,0.005,0.002
N,97,0.095,0.005,0
N,98,0.095,0.005,0.002
N,99,0.098,0.005,0
N,100,0.098,0.005,0.002
N,101,0.1,0.005,0
N,102,0.1,0.005,0.002
N,103,0.002,0.007,0
N,104,0,0.007,0
N,105,0.002,0.007,0.002
N,106,0,0.007,0.002
N,107,0.005,0.007,0
N,108,0.005,0.007,0.002
N,109,0.007,0.007,0
N,110,0.007,0.007,0.002
N,111,0.01,0.007,0
N,112,0.01,0.007,0.002
N,113,0.015,0.007,0
N,114,0.015,0.007,0.002
N,115,0.02,0.007,0
N,116,0.02,0.007,0.002
N,117,0.035,0.007,0
N,118,0.035,0.007,0.002
N,119,0.05,0.007,0
N,120,0.05,0.007,0.002
N,121,0.065,0.007,0
N,122,0.065,0.007,0.002
N,123,0.08,0.007,0
N,124,0.08,0.007,0.002
N,125,0.085,0.007,0
N,126,0.085,0.007,0.002
N,127,0.09,0.007,0
N,128,0.09,0.007,0.002
N,129,0.093,0.007,0
N,130,0.093,0.007,0.002
N,131,0.095,0.007,0
N,132,0.095,0.007,0.002
N,133,0.098,0.007,0
N,134,0.098,0.007,0.002
N,135,0.1,0.007,0
N,136,0.1,0.007,0.002
N,137,0.002,0.01,0
N,138,0,0.01,0
N,139,0.002,0.01,0.002
N,140,0,0.01,0.002
N,141,0.005,0.01,0
N,142,0.005,0.01,0.002
N,143,0.007,0.01,0
N,144,0.007,0.01,0.002
N,145,0.01,0.01,0
N,146,0.01,0.01,0.002
N,147,0.015,0.01,0
N,148,0.015,0.01,0.002
N,149,0.02,0.01,0
N,150,0.02,0.01,0.002
N,151,0.035,0.01,0
N,152,0.035,0.01,0.002
N,153,0.05,0.01,0
N,154,0.05,0.01,0.002
N,155,0.065,0.01,0
N,156,0.065,0.01,0.002
N,157,0.08,0.01,0
N,158,0.08,0.01,0.002
N,159,0.085,0.01,0
N,160,0.085,0.01,0.002
N,161,0.09,0.01,0
N,162,0.09,0.01,0.002
N,163,0.093,0.01,0
N,164,0.093,0.01,0.002
N,165,0.095,0.01,0
N,166,0.095,0.01,0.002
N,167,0.098,0.01,0
N,168,0.098,0.01,0.002
N,169,0.1,0.01,0
N,170,0.1,0.01,0.002
N,171,0.002,0.015,0
N,172,0,0.015,0
N,173,0.002,0.015,0.002
N,174,0,0.015,0.002
N,175,0.005,0.015,0
N,176,0.005,0.015,0.002
N,177,0.007,0.015,0
N,178,0.007,0.015,0.002
N,179,0.01,0.015,0
N,180,0.01,0.015,0.002
N,181,0.015,0.015,0
N,182,0.015,0.015,0.002
N,183,0.02,0.015,0
N,184,0.02,0.015,0.002
N,185,0.035,0.015,0
N,186,0.035,0.015,0.002
N,187,0.05,0.015,0
N,188,0.05,0.015,0.002
N,189,0.065,0.015,0
N,190,0.065,0.015,0.002
N,191,0.08,0.015,0
N,192,0.08,0.015,0.002
N,193,0.085,0.015,0
N,194,0.085,0.015,0.002
N,195,0.09,0.015,0
N,196,0.09,0.015,0.002
N,197,0.093,0.015,0
N,198,0.093,0.015,0.002
N,199,0.095,0.015,0
N,200,0.095,0.015,0.002
N,201,0.098,0.015,0
N,202,0.098,0.015,0.002
N,203,0.1,0.015,0
N,204,0.1,0.015,0.002
N,205,0.002,0.02,0
N,206,0,0.02,0
N,207,0.002,0.02,0.002
N,208,0,0.02,0.002
N,209,0.005,0.02,0
N,210,0.005,0.02,0.002
N,211,0.007,0.02,0
N,212,0.007,0.02,0.002
N,213,0.01,0.02,0
N,214,0.01,0.02,0.002
N,215,0.015,0.02,0
N,216,0.015,0.02,0.002
N,217,0.02,0.02,0
N,218,0.02,0.02,0.002
N,219,0.035,0.02,0
N,220,0.035,0.02,0.002
N,221,0.05,0.02,0
N,222,0.05,0.02,0.002
N,223,0.065,0.02,0
N,224,0.065,0.02,0.002
N,225,0.08,0.02,0
N,226,0.08,0.02,0.002
N,227,0.085,0.02,0
N,228,0.085,0.02,0.002
N,229,0.09,0.02,0
N,230,0.09,0.02,0.002
N,231,0.093,0.02,0
N,232,0.093,0.02,0.002
N,233,0.095,0.02,0
N,234,0.095,0.02,0.002
N,235,0.098,0.02,0
N,236,0.098,0.02,0.002
N,237,0.1,0.02,0
N,238,0.1,0.02,0.002
N,239,0.002,0.035,0
N,240,0,0.035,0
N,241,0.002,0.035,0.002
N,242,0,0.035,0.002
N,243,0.005,0.035,0
N,244,0.005,0.035,0.002
N,245,0.007,0.035,0
N,246,0.007,0.035,0.002
N,247,0.01,0.035,0
N,248,0.01,0.035,0.002
N,249,0.015,0.035,0
N,250,0.015,0.035,0.002
N,251,0.02,0.035,0
N,252,0.02,0.035,0.002
N,253,0.035,0.035,0
N,254,0.035,0.035,0.002
N,255,0.05,0.035,0
N,256,0.05,0.035,0.002
N,257,0.065,0.035,0
N,258,0.065,0.035,0.002
N,259,0.08,0.035,0
N,260,0.08,0.035,0.002
N,261,0.085,0.035,0
N,262,0.085,0.035,0.002
N,263,0.09,0.035,0
N,264,0.09,0.035,0.002
N,265,0.093,0.035,0
N,266,0.093,0.035,0.002
N,267,0.095,0.035,0
N,268,0.095,0.035,0.002
N,269,0.098,0.035,0
N,270,0.098,0.035,0.002
N,271,0.1,0.035,0
N,272,0.1,0.035,0.002
N,273,0.002,0.05,0
N,274,0,0.05,0
N,275,0.002,0.05,0.002
N,276,0,0.05,0.002
N,277,0.005,0.05,0
N,278,0.005,0.05,0.002
N,279,0.007,0.05,0
N,280,0.007,0.05,0.002
N,281,0.01,0.05,0
N,282,0.01,0.05,0.002
N,283,0.015,0.05,0
N,284,0.015,0.05,0.002
N,285,0.02,0.05,0
N,286,0.02,0.05,0.002
N,287,0.035,0.05,0
N,288,0.035,0.05,0.002
N,289,0.05,0.05,0
N,290,0.05,0.05,0.002
N,291,0.065,0.05,0
N,292,0.065,0.05,0.002
N,293,0.08,0.05,0
N,294,0.08,0.05,0.002
N,295,0.085,0.05,0
N,296,0.085,0.05,0.002
N,297,0.09,0.05,0
N,298,0.09,0.05,0.002
N,299,0.093,0.05,0
N,300,0.093,0.05,0.002
N,301,0.095,0.05,0
N,302,0.095,0.05,0.002
N,303,0.098,0.05,0
N,304,0.098,0.05,0.002
N,305,0.1,0.05,0
N,306,0.1,0.05,0.002
N,307,0.002,0.065,0
N,308,0,0.065,0
N,309,0.002,0.065,0.002
N,310,0,0.065,0.002
N,311,0.005,0.065,0
N,312,0.005,0.065,0.002
N,313,0.007,0.065,0
N,314,0.007,0.065,0.002
N,315,0.01,0.065,0
N,316,0.01,0.065,0.002
N,317,0.015,0.065,0
N,318,0.015,0.065,0.002
N,319,0.02,0.065,0
N,320,0.02,0.065,0.002
N,321,0.035,0.065,0
N,322,0.035,0.065,0.002
N,323,0.05,0.065,0
N,324,0.05,0.065,0.002
N,325,0.065,0.065,0
N,326,0.065,0.065,0.002
N,327,0.08,0.065,0
N,328,0.08,0.065,0.002
N,329,0.085,0.065,0
N,330,0.085,0.065,0.002
N,331,0.09,0.065,0
N,332,0.09,0.065,0.002
N,333,0.093,0.065,0
N,334,0.093,0.065,0.002
N,335,0.095,0.065,0
N,336,0.095,0.065,0.002
N,337,0.098,0.065,0
N,338,0.098,0.065,0.002
N,339,0.1,0.065,0
N,340,0.1,0.065,0.002
N,341,0.002,0.08,0
N,342,0,0.08,0
N,343,0.002,0.08,0.002
N,344,0,0.08,0.002
N,345,0.005,0.08,0
N,346,0.005,0.08,0.002
N,347,0.007,0.08,0
N,348,0.007,0.08,0.002
N,349,0.01,0.08,0
N,350,0.01,0.08,0.002
N,351,0.015,0.08,0
N,352,0.015,0.08,0.002
N,353,0.02,0.08,0
N,354,0.02,0.08,0.002
N,355,0.035,0.08,0
N,356,0.035,0.08,0.002
N,357,0.05,0.08,0
N,358,0.05,0.08,0.002
N,359,0.065,0.08,0
N,360,0.065,0.08,0.002
N,361,0.08,0.08,0
N,362,0.08,0.08,0.002
N,363,0.085,0.08,0
N,364,0.085,0.08,0.002
N,365,0.09,0.08,0
N,366,0.09,0.08,0.002
N,367,0.093,0.08,0
N,368,0.093,0.08,0.002
N,369,0.095,0.08,0
N,370,0.095,0.08,0.002
N,371,0.098,0.08,0
N,372,0.098,0.08,0.002
N,373,0.1,0.08,0
N,374,0.1,0.08,0.002
N,375,0.002,0.085,0
N,376,0,0.085,0
N,377,0.002,0.085,0.002
N,378,0,0.085,0.002
N,379,0.005,0.085,0
N,380,0.005,0.085,0.002
N,381,0.007,0.085,0
N,382,0.007,0.085,0.002
N,383,0.01,0.085,0
N,384,0.01,0.085,0.002
N,385,0.015,0.085,0
N,386,0.015,0.085,0.002
N,387,0.02,0.085,0
N,388,0.02,0.085,0.002
N,389,0.035,0.085,0
N,390,0.035,0.085,0.002
N,391,0.05,0.085,0
N,392,0.05,0.085,0.002
N,393,0.065,0.085,0
N,394,0.065,0.085,0.002
N,395,0.08,0.085,0
N,396,0.08,0.085,0.002
N,397,0.085,0.085,0
N,398,0.085,0.085,0.002
N,399,0.09,0.085,0
N,400,0.09,0.085,0.002
N,401,0.093,0.085,0
N,402,0.093,0.085,0.002
N,403,0.095,0.085,0
N,404,0.095,0.085,0.002
N,405,0.098,0.085,0
N,406,0.098,0.085,0.002
N,407,0.1,0.085,0
N,408,0.1,0.085,0.002
N,409,0.002,0.09,0
N,410,0,0.09,0
N,411,0.002,0.09,0.002
N,412,0,0.09,0.002
N,413,0.005,0.09,0
N,414,0.005,0.09,0.002
N,415,0.007,0.09,0
N,416,0.007,0.09,0.002
N,417,0.01,0.09,0
N,418,0.01,0.09,0.002
N,419,0.015,0.09,0
N,420,0.015,0.09,0.002
N,421,0.02,0.09,0
N,422,0.02,0.09,0.002
N,423,0.035,0.09,0
N,424,0.035,0.09,0.002
N,425,0.05,0.09,0
N,426,0.05,0.09,0.002
N,427,0.065,0.09,0
N,428,0.065,0.09,0.002
N,429,0.08,0.09,0
N,430,0.08,0.09,0.002
N,431,0.085,0.09,0
N,432,0.085,0.09,0.002
N,433,0.09,0.09,0
N,434,0.09,0.09,0.002
N,435,0.093,0.09,0
N,436,0.093,0.09,0.002
N,437,0.095,0.09,0
N,438,0.095,0.09,0.002
N,439,0.098,0.09,0
N,440,0.098,0.09,0.002
N,441,0.1,0.09,0
N,442,0.1,0.09,0.002
N,443,0.002,0.093,0
N,444,0,0.093,0
N,445,0.002,0.093,0.002
N,446,0,0.093,0.002
N,447,0.005,0.093,0
N,448,0.005,0.093,0.002
N,449,0.007,0.093,0
N,450,0.007,0.093,0.002
N,451,0.01,0.093,0
N,452,0.01,0.093,0.002
N,453,0.015,0.093,0
N,454,0.015,0.093,0.002
N,455,0.02,0.093,0
N,456,0.02,0.093,0.002
N,457,0.035,0.093,0
N,458,0.035,0.093,0.002
N,459,0.05,0.093,0
N,460,0.05,0.093,0.002
N,461,0.065,0.093,0
N,462,0.065,0.093,0.002
N,463,0.08,0.093,0
N,464,0.08,0.093,0.002
N,465,0.085,0.093,0
N,466,0.085,0.093,0.002
N,467,0.09,0.093,0
N,468,0.09,0.093,0.002
N,469,0.093,0.093,0
N,470,0.093,0.093,0.002
N,471,0.095,0.093,0
N,472,0.095,0.093,0.002
N,473,0.098,0.093,0
N,474,0.098,0.093,0.002
N,475,0.1,0.093,0
N,476,0.1,0.093,0.002
N,477,0.002,0.095,0
N,478,0,0.095,0
N,479,0.002,0.095,0.002
N,480,0,0.095,0.002
N,481,0.005,0.095,0
N,482,0.005,0.095,0.002
N,483,0.007,0.095,0
N,484,0.007,0.095,0.002
N,485,0.01,0.095,0
N,486,0.01,0.095,0.002
N,487,0.015,0.095,0
N,488,0.015,0.095,0.002
N,489,0.02,0.095,0
N,490,0.02,0.095,0.002
N,491,0.035,0.095,0
N,492,0.035,0.095,0.002
N,493,0.05,0.095,0
N,494,0.05,0.095,0.002
N,495,0.065,0.095,0
N,496,0.065,0.095,0.002
N,497,0.08,0.095,0
N,498,0.08,0.095,0.002
N,499,0.085,0.095,0
N,500,0.085,0.095,0.002
N,501,0.09,0.095,0
N,502,0.09,0.095,0.002
N,503,0.093,0.095,0
N,504,0.093,0.095,0.002
N,505,0.095,0.095,0
N,506,0.095,0.095,0.002
N,507,0.098,0.095,0
N,508,0.098,0.095,0.002
N,509,0.1,0.095,0
N,510,0.1,0.095,0.002
N,511,0.002,0.098,0
N,512,0,0.098,0
N,513,0.002,0.098,0.002
N,514,0,0.098,0.002
N,515,0.005,0.098,0
N,516,0.005,0.098,0.002
N,517,0.007,0.098,0
N,518,0.007,0.098,0.002
N,519,0.01,0.098,0
N,520,0.01,0.098,0.002
N,521,0.015,0.098,0
N,522,0.015,0.098,0.002
N,523,0.02,0.098,0
N,524,0.02,0.098,0.002
N,525,0.035,0.098,0
N,526,0.035,0.098,0.002
N,527,0.05,0.098,0
N,528,0.05,0.098,0.002
N,529,0.065,0.098,0
N,530,0.065,0.098,0.002
N,531,0.08,0.098,0
N,532,0.08,0.098,0.002
N,533,0.085,0.098,0
N,534,0.085,0.098,0.002
N,535,0.09,0.098,0
N,536,0.09,0.098,0.002
N,537,0.093,0.098,0
N,538,0.093,0.098,0.002
N,539,0.095,0.098,0
N,540,0.095,0.098,0.002
N,541,0.098,0.098,0
N,542,0.098,0.098,0.002
N,543,0.1,0.098,0
N,544,0.1,0.098,0.002
N,545,0.002,0.1,0
N,546,0,0.1,0
N,547,0.002,0.1,0.002
N,548,0,0.1,0.002
N,549,0.005,0.1,0
N,550,0.005,0.1,0.002
N,551,0.007,0.1,0
N,552,0.007,0.1,0.002
N,553,0.01,0.1,0
N,554,0.01,0.1,0.002
N,555,0.015,0.1,0
N,556,0.015,0.1,0.002
N,557,0.02,0.1,0
N,558,0.02,0.1,0.002
N,559,0.035,0.1,0
N,560,0.035,0.1,0.002
N,561,0.05,0.1,0
N,562,0.05,0.1,0.002
N,563,0.065,0.1,0
N,564,0.065,0.1,0.002
N,565,0.08,0.1,0
N,566,0.08,0.1,0.002
N,567,0.085,0.1,0
N,568,0.085,0.1,0.002
N,569,0.09,0.1,0
N,570,0.09,0.1,0.002
N,571,0.093,0.1,0
N,572,0.093,0.1,0.002
N,573,0.095,0.1,0
N,574,0.095,0.1,0.002
N,575,0.098,0.1,0
N,576,0.098,0.1,0.002
N,577,0.1,0.1,0
N,578,0.1,0.1,0.002
N,579,0,0,0.007
N,580,0.002,0,0.007
N,581,0.002,0.002,0.007
N,582,0,0.002,0.007
N,583,0.005,0,0.007
N,584,0.005,0.002,0.007
N,585,0.007,0,0.007
N,586,0.007,0.002,0.007
N,587,0.01,0,0.007
N,588,0.01,0.002,0.007
N,589,0.015,0,0.007
N,590,0.015,0.002,0.007
N,591,0.02,0,0.007
N,592,0.02,0.002,0.007
N,593,0.035,0,0.007
N,594,0.035,0.002,0.007
N,595,0.05,0,0.007
N,596,0.05,0.002,0.007
N,597,0.065,0,0.007
N,598,0.065,0.002,0.007
N,599,0.08,0,0.007
N,600,0.08,0.002,0.007
N,601,0.085,0,0.007
N,602,0.085,0.002,0.007
N,603,0.09,0,0.007
N,604,0.09,0.002,0.007
N,605,0.093,0,0.007
N,606,0.093,0.002,0.007
N,607,0.095,0,0.007
N,608,0.095,0.002,0.007
N,609,0.098,0,0.007
N,610,0.098,0.002,0.007
N,611,0.1,0,0.007
N,612,0.1,0.002,0.007
N,613,0.002,0.005,0.007
N,614,0,0.005,0.007
N,615,0.005,0.005,0.007
N,616,0.007,0.005,0.007
N,617,0.01,0.005,0.007
N,618,0.015,0.005,0.007
N,619,0.02,0.005,0.007
N,620,0.035,0.005,0.007
N,621,0.05,0.005,0.007
N,622,0.065,0.005,0.007
N,623,0.08,0.005,0.007
N,624,0.085,0.005,0.007
N,625,0.09,0.005,0.007
N,626,0.093,0.005,0.007
N,627,0.095,0.005,0.007
N,628,0.098,0.005,0.007
N,629,0.1,0.005,0.007
N,630,0.002,0.007,0.007
N,631,0,0.007,0.007
N,632,0.005,0.007,0.007
N,633,0.007,0.007,0.007
N,634,0.01,0.007,0.007
N,635,0.015,0.007,0.007
N,636,0.02,0.007,0.007
N,637,0.035,0.007,0.007
N,638,0.05,0.007,0.007
N,639,0.065,0.007,0.007
N,640,0.08,0.007,0.007
N,641,0.085,0.007,0.007
N,642,0.09,0.007,0.007
N,643,0.093,0.007,0.007
N,644,0.095,0.007,0.007
N,645,0.098,0.007,0.007
N,646,0.1,0.007,0.007
N,647,0.002,0.01,0.007
N,648,0,0.01,0.007
N,649,0.005,0.01,0.007
N,650,0.007,0.01,0.007
N,651,0.095,0.01,0.007
N,652,0.093,0.01,0.007
N,653,0.098,0.01,0.007
N,654,0.1,0.01,0.007
N,655,0.002,0.015,0.007
N,656,0,0.015,0.007
N,657,0.005,0.015,0.007
N,658,0.007,0.015,0.007
N,659,0.01,0.01,0.007
N,660,0.015,0.01,0.007
N,661,0.015,0.015,0.007
N,662,0.01,0.015,0.007
N,663,0.085,0.01,0.007
N,664,0.09,0.01,0.007
N,665,0.09,0.015,0.007
N,666,0.085,0.015,0.007
N,667,0.095,0.015,0.007
N,668,0.093,0.015,0.007
N,669,0.098,0.015,0.007
N,670,0.1,0.015,0.007
N,671,0.002,0.02,0.007
N,672,0,0.02,0.007
N,673,0.005,0.02,0.007
N,674,0.007,0.02,0.007
N,675,0.095,0.02,0.007
N,676,0.093,0.02,0.007
N,677,0.098,0.02,0.007
N,678,0.1,0.02,0.007
N,679,0.002,0.035,0.007
N,680,0,0.035,0.007
N,681,0.005,0.035,0.007
N,682,0.007,0.035,0.007
N,683,0.095,0.035,0.007
N,684,0.093,0.035,0.007
N,685,0.098,0.035,0.007
N,686,0.1,0.035,0.007
N,687,0.002,0.05,0.007
N,688,0,0.05,0.007
N,689,0.005,0.05,0.007
N,690,0.007,0.05,0.007
N,691,0.095,0.05,0.007
N,692,0.093,0.05,0.007
N,693,0.098,0.05,0.007
N,694,0.1,0.05,0.007
N,695,0.002,0.065,0.007
N,696,0,0.065,0.007
N,697,0.005,0.065,0.007
N,698,0.007,0.065,0.007
N,699,0.095,0.065,0.007
N,700,0.093,0.065,0.007
N,701,0.098,0.065,0.007
N,702,0.1,0.065,0.007
N,703,0.002,0.08,0.007
N,704,0,0.08,0.007
N,705,0.005,0.08,0.007
N,706,0.007,0.08,0.007
N,707,0.095,0.08,0.007
N,708,0.093,0.08,0.007
N,709,0.098,0.08,0.007
N,710,0.1,0.08,0.007
N,711,0.002,0.085,0.007
N,712,0,0.085,0.007
N,713,0.005,0.085,0.007
N,714,0.007,0.085,0.007
N,715,0.095,0.085,0.007
N,716,0.093,0.085,0.007
N,717,0.098,0.085,0.007
N,718,0.1,0.085,0.007
N,719,0.002,0.09,0.007
N,720,0,0.09,0.007
N,721,0.005,0.09,0.007
N,722,0.007,0.09,0.007
N,723,0.01,0.085,0.007
N,724,0.015,0.085,0.007
N,725,0.015,0.09,0.007
N,726,0.01,0.09,0.007
N,727,0.085,0.085,0.007
N,728,0.09,0.085,0.007
N,729,0.09,0.09,0.007
N,730,0.085,0.09,0.007
N,731,0.095,0.09,0.007
N,732,0.093,0.09,0.007
N,733,0.098,0.09,0.007
N,734,0.1,0.09,0.007
N,735,0.002,0.093,0.007
N,736,0,0.093,0.007
N,737,0.005,0.093,0.007
N,738,0.007,0.093,0.007
N,739,0.095,0.093,0.007
N,740,0.093,0.093,0.007
N,741,0.098,0.093,0.007
N,742,0.1,0.093,0.007
N,743,0.002,0.095,0.007
N,744,0,0.095,0.007
N,745,0.005,0.095,0.007
N,746,0.007,0.095,0.007
N,747,0.01,0.093,0.007
N,748,0.01,0.095,0.007
N,749,0.015,0.093,0.007
N,750,0.015,0.095,0.007
N,751,0.02,0.093,0.007
N,752,0.02,0.095,0.007
N,753,0.035,0.093,0.007
N,754,0.035,0.095,0.007
N,755,0.05,0.093,0.007
N,756,0.05,0.095,0.007
N,757,0.065,0.093,0.007
N,758,0.065,0.095,0.007
N,759,0.08,0.093,0.007
N,760,0.08,0.095,0.007
N,761,0.085,0.093,0.007
N,762,0.085,0.095,0.007
N,763,0.09,0.093,0.007
N,764,0.09,0.095,0.007
N,765,0.093,0.095,0.007
N,766,0.095,0.095,0.007
N,767,0.098,0.095,0.007
N,768,0.1,0.095,0.007
N,769,0.002,0.098,0.007
N,770,0,0.098,0.007
N,771,0.005,0.098,0.007
N,772,0.007,0.098,0.007
N,773,0.01,0.098,0.007
N,774,0.015,0.098,0.007
N,775,0.02,0.098,0.007
N,776,0.035,0.098,0.007
N,777,0.05,0.098,0.007
N,778,0.065,0.098,0.007
N,779,0.08,0.098,0.007
N,780,0.085,0.098,0.007
N,781,0.09,0.098,0.007
N,782,0.093,0.098,0.007
N,783,0.095,0.098,0.007
N,784,0.098,0.098,0.007
N,785,0.1,0.098,0.007
N,786,0.002,0.1,0.007
N,787,0,0.1,0.007
N,788,0.005,0.1,0.007
N,789,0.007,0.1,0.007
N,790,0.01,0.1,0.007
N,791,0.015,0.1,0.007
N,792,0.02,0.1,0.007
N,793,0.035,0.1,0.007
N,794,0.05,0.1,0.007
N,795,0.065,0.1,0.007
N,796,0.08,0.1,0.007
N,797,0.085,0.1,0.007
N,798,0.09,0.1,0.007
N,799,0.093,0.1,0.007
N,800,0.095,0.1,0.007
N,801,0.098,0.1,0.007
N,802,0.1,0.1,0.007
N,803,0,0,0.02
N,804,0.002,0,0.02
N,805,0.002,0.002,0.02
N,806,0,0.002,0.02
N,807,0.005,0,0.02
N,808,0.005,0.002,0.02
N,809,0.007,0,0.02
N,810,0.007,0.002,0.02
N,811,0.01,0,0.02
N,812,0.01,0.002,0.02
N,813,0.015,0,0.02
N,814,0.015,0.002,0.02
N,815,0.02,0,0.02
N,816,0.02,0.002,0.02
N,817,0.035,0,0.02
N,818,0.035,0.002,0.02
N,819,0.05,0,0.02
N,820,0.05,0.002,0.02
N,821,0.065,0,0.02
N,822,0.065,0.002,0.02
N,823,0.08,0,0.02
N,824,0.08,0.002,0.02
N,825,0.085,0,0.02
N,826,0.085,0.002,0.02
N,827,0.09,0,0.02
N,828,0.09,0.002,0.02
N,829,0.093,0,0.02
N,830,0.093,0.002,0.02
N,831,0.095,0,0.02
N,832,0.095,0.002,0.02
N,833,0.098,0,0.02
N,834,0.098,0.002,0.02
N,835,0.1,0,0.02
N,836,0.1,0.002,0.02
N,837,0.002,0.005,0.02
N,838,0,0.005,0.02
N,839,0.005,0.005,0.02
N,840,0.007,0.005,0.02
N,841,0.095,0.005,0.02
N,842,0.093,0.005,0.02
N,843,0.098,0.005,0.02
N,844,0.1,0.005,0.02
N,845,0.002,0.007,0.02
N,846,0,0.007,0.02
N,847,0.005,0.007,0.02
N,848,0.007,0.007,0.02
N,849,0.095,0.007,0.02
N,850,0.093,0.007,0.02
N,851,0.098,0.007,0.02
N,852,0.1,0.007,0.02
N,853,0.002,0.01,0.02
N,854,0,0.01,0.02
N,855,0.1,0.01,0.02
N,856,0.098,0.01,0.02
N,857,0.002,0.015,0.02
N,858,0,0.015,0.02
N,859,0.01,0.01,0.02
N,860,0.015,0.01,0.02
N,861,0.015,0.015,0.02
N,862,0.01,0.015,0.02
N,863,0.085,0.01,0.02
N,864,0.09,0.01,0.02
N,865,0.09,0.015,0.02
N,866,0.085,0.015,0.02
N,867,0.1,0.015,0.02
N,868,0.098,0.015,0.02
N,869,0.002,0.02,0.02
N,870,0,0.02,0.02
N,871,0.1,0.02,0.02
N,872,0.098,0.02,0.02
N,873,0.002,0.035,0.02
N,874,0,0.035,0.02
N,875,0.1,0.035,0.02
N,876,0.098,0.035,0.02
N,877,0.002,0.05,0.02
N,878,0,0.05,0.02
N,879,0.1,0.05,0.02
N,880,0.098,0.05,0.02
N,881,0.002,0.065,0.02
N,882,0,0.065,0.02
N,883,0.1,0.065,0.02
N,884,0.098,0.065,0.02
N,885,0.002,0.08,0.02
N,886,0,0.08,0.02
N,887,0.1,0.08,0.02
N,888,0.098,0.08,0.02
N,889,0.002,0.085,0.02
N,890,0,0.085,0.02
N,891,0.1,0.085,0.02
N,892,0.098,0.085,0.02
N,893,0.002,0.09,0.02
N,894,0,0.09,0.02
N,895,0.01,0.085,0.02
N,896,0.015,0.085,0.02
N,897,0.015,0.09,0.02
N,898,0.01,0.09,0.02
N,899,0.085,0.085,0.02
N,900,0.09,0.085,0.02
N,901,0.09,0.09,0.02
N,902,0.085,0.09,0.02
N,903,0.1,0.09,0.02
N,904,0.098,0.09,0.02
N,905,0.002,0.093,0.02
N,906,0,0.093,0.02
N,907,0.1,0.093,0.02
N,908,0.098,0.093,0.02
N,909,0.002,0.095,0.02
N,910,0,0.095,0.02
N,911,0.005,0.093,0.02
N,912,0.005,0.095,0.02
N,913,0.007,0.093,0.02
N,914,0.007,0.095,0.02
N,915,0.093,0.093,0.02
N,916,0.095,0.093,0.02
N,917,0.095,0.095,0.02
N,918,0.093,0.095,0.02
N,919,0.098,0.095,0.02
N,920,0.1,0.095,0.02
N,921,0.002,0.098,0.02
N,922,0,0.098,0.02
N,923,0.005,0.098,0.02
N,924,0.007,0.098,0.02
N,925,0.095,0.098,0.02
N,926,0.093,0.098,0.02
N,927,0.098,0.098,0.02
N,928,0.1,0.098,0.02
N,929,0.002,0.1,0.02
N,930,0,0.1,0.02
N,931,0.005,0.1,0.02
N,932,0.007,0.1,0.02
N,933,0.01,0.098,0.02
N,934,0.01,0.1,0.02
N,935,0.015,0.098,0.02
N,936,0.015,0.1,0.02
N,937,0.02,0.098,0.02
N,938,0.02,0.1,0.02
N,939,0.035,0.098,0.02
N,940,0.035,0.1,0.02
N,941,0.05,0.098,0.02
N,942,0.05,0.1,0.02
N,943,0.065,0.098,0.02
N,944,0.065,0.1,0.02
N,945,0.08,0.098,0.02
N,946,0.08,0.1,0.02
N,947,0.085,0.098,0.02
N,948,0.085,0.1,0.02
N,949,0.09,0.098,0.02
N,950,0.09,0.1,0.02
N,951,0.093,0.1,0.02
N,952,0.095,0.1,0.02
N,953,0.098,0.1,0.02
N,954,0.1,0.1,0.02
N,955,0,0,0.022
N,956,0.002,0,0.022
N,957,0.002,0.002,0.022
N,958,0,0.002,0.022
N,959,0.005,0,0.022
N,960,0.005,0.002,0.022
N,961,0.007,0,0.022
N,962,0.007,0.002,0.022
N,963,0.01,0,0.022
N,964,0.01,0.002,0.022
N,965,0.015,0,0.022
N,966,0.015,0.002,0.022
N,967,0.02,0,0.022
N,968,0.02,0.002,0.022
N,969,0.035,0,0.022
N,970,0.035,0.002,0.022
N,971,0.05,0,0.022
N,972,0.05,0.002,0.022
N,973,0.065,0,0.022
N,974,0.065,0.002,0.022
N,975,0.08,0,0.022
N,976,0.08,0.002,0.022
N,977,0.085,0,0.022
N,978,0.085,0.002,0.022
N,979,0.09,0,0.022
N,980,0.09,0.002,0.022
N,981,0.093,0,0.022
N,982,0.093,0.002,0.022
N,983,0.095,0,0.022
N,984,0.095,0.002,0.022
N,985,0.098,0,0.022
N,986,0.098,0.002,0.022
N,987,0.1,0,0.022
N,988,0.1,0.002,0.022
N,989,0.002,0.005,0.022
N,990,0,0.005,0.022
N,991,0.005,0.005,0.022
N,992,0.007,0.005,0.022
N,993,0.095,0.005,0.022
N,994,0.093,0.005,0.022
N,995,0.098,0.005,0.022
N,996,0.1,0.005,0.022
N,997,0.002,0.007,0.022
N,998,0,0.007,0.022
N,999,0.005,0.007,0.022
N,1000,0.007,0.007,0.022
N,1001,0.01,0.005,0.02
N,1002,0.01,0.007,0.02
N,1003,0.01,0.005,0.022
N,1004,0.01,0.007,0.022
N,1005,0.015,0.005,0.02
N,1006,0.015,0.007,0.02
N,1007,0.015,0.005,0.022
N,1008,0.015,0.007,0.022
N,1009,0.02,0.005,0.02
N,1010,0.02,0.007,0.02
N,1011,0.02,0.005,0.022
N,1012,0.02,0.007,0.022
N,1013,0.035,0.005,0.02
N,1014,0.035,0.007,0.02
N,1015,0.035,0.005,0.022
N,1016,0.035,0.007,0.022
N,1017,0.05,0.005,0.02
N,1018,0.05,0.007,0.02
N,1019,0.05,0.005,0.022
N,1020,0.05,0.007,0.022
N,1021,0.065,0.005,0.02
N,1022,0.065,0.007,0.02
N,1023,0.065,0.005,0.022
N,1024,0.065,0.007,0.022
N,1025,0.08,0.005,0.02
N,1026,0.08,0.007,0.02
N,1027,0.08,0.005,0.022
N,1028,0.08,0.007,0.022
N,1029,0.085,0.005,0.02
N,1030,0.085,0.007,0.02
N,1031,0.085,0.005,0.022
N,1032,0.085,0.007,0.022
N,1033,0.09,0.005,0.02
N,1034,0.09,0.007,0.02
N,1035,0.09,0.005,0.022
N,1036,0.09,0.007,0.022
N,1037,0.093,0.007,0.022
N,1038,0.095,0.007,0.022
N,1039,0.098,0.007,0.022
N,1040,0.1,0.007,0.022
N,1041,0.002,0.01,0.022
N,1042,0,0.01,0.022
N,1043,0.007,0.01,0.02
N,1044,0.005,0.01,0.02
N,1045,0.007,0.01,0.022
N,1046,0.005,0.01,0.022
N,1047,0.01,0.01,0.022
N,1048,0.015,0.01,0.022
N,1049,0.02,0.01,0.02
N,1050,0.02,0.01,0.022
N,1051,0.035,0.01,0.02
N,1052,0.035,0.01,0.022
N,1053,0.05,0.01,0.02
N,1054,0.05,0.01,0.022
N,1055,0.065,0.01,0.02
N,1056,0.065,0.01,0.022
N,1057,0.08,0.01,0.02
N,1058,0.08,0.01,0.022
N,1059,0.085,0.01,0.022
N,1060,0.09,0.01,0.022
N,1061,0.093,0.01,0.02
N,1062,0.093,0.01,0.022
N,1063,0.095,0.01,0.02
N,1064,0.095,0.01,0.022
N,1065,0.1,0.01,0.022
N,1066,0.098,0.01,0.022
N,1067,0.002,0.015,0.022
N,1068,0,0.015,0.022
N,1069,0.007,0.015,0.02
N,1070,0.005,0.015,0.02
N,1071,0.007,0.015,0.022
N,1072,0.005,0.015,0.022
N,1073,0.01,0.015,0.022
N,1074,0.015,0.015,0.022
N,1075,0.02,0.015,0.02
N,1076,0.02,0.015,0.022
N,1077,0.035,0.015,0.02
N,1078,0.035,0.015,0.022
N,1079,0.05,0.015,0.02
N,1080,0.05,0.015,0.022
N,1081,0.065,0.015,0.02
N,1082,0.065,0.015,0.022
N,1083,0.08,0.015,0.02
N,1084,0.08,0.015,0.022
N,1085,0.085,0.015,0.022
N,1086,0.09,0.015,0.022
N,1087,0.093,0.015,0.02
N,1088,0.093,0.015,0.022
N,1089,0.095,0.015,0.02
N,1090,0.095,0.015,0.022
N,1091,0.1,0.015,0.022
N,1092,0.098,0.015,0.022
N,1093,0.002,0.02,0.022
N,1094,0,0.02,0.022
N,1095,0.007,0.02,0.02
N,1096,0.005,0.02,0.02
N,1097,0.007,0.02,0.022
N,1098,0.005,0.02,0.022
N,1099,0.01,0.02,0.02
N,1100,0.01,0.02,0.022
N,1101,0.015,0.02,0.02
N,1102,0.015,0.02,0.022
N,1103,0.02,0.02,0.02
N,1104,0.02,0.02,0.022
N,1105,0.035,0.02,0.02
N,1106,0.035,0.02,0.022
N,1107,0.05,0.02,0.02
N,1108,0.05,0.02,0.022
N,1109,0.065,0.02,0.02
N,1110,0.065,0.02,0.022
N,1111,0.08,0.02,0.02
N,1112,0.08,0.02,0.022
N,1113,0.085,0.02,0.02
N,1114,0.085,0.02,0.022
N,1115,0.09,0.02,0.02
N,1116,0.09,0.02,0.022
N,1117,0.093,0.02,0.02
N,1118,0.093,0.02,0.022
N,1119,0.095,0.02,0.02
N,1120,0.095,0.02,0.022
N,1121,0.1,0.02,0.022
N,1122,0.098,0.02,0.022
N,1123,0.002,0.035,0.022
N,1124,0,0.035,0.022
N,1125,0.007,0.035,0.02
N,1126,0.005,0.035,0.02
N,1127,0.007,0.035,0.022
N,1128,0.005,0.035,0.022
N,1129,0.01,0.035,0.02
N,1130,0.01,0.035,0.022
N,1131,0.015,0.035,0.02
N,1132,0.015,0.035,0.022
N,1133,0.02,0.035,0.02
N,1134,0.02,0.035,0.022
N,1135,0.035,0.035,0.02
N,1136,0.035,0.035,0.022
N,1137,0.05,0.035,0.02
N,1138,0.05,0.035,0.022
N,1139,0.065,0.035,0.02
N,1140,0.065,0.035,0.022
N,1141,0.08,0.035,0.02
N,1142,0.08,0.035,0.022
N,1143,0.085,0.035,0.02
N,1144,0.085,0.035,0.022
N,1145,0.09,0.035,0.02
N,1146,0.09,0.035,0.022
N,1147,0.093,0.035,0.02
N,1148,0.093,0.035,0.022
N,1149,0.095,0.035,0.02
N,1150,0.095,0.035,0.022
N,1151,0.1,0.035,0.022
N,1152,0.098,0.035,0.022
N,1153,0.002,0.05,0.022
N,1154,0,0.05,0.022
N,1155,0.007,0.05,0.02
N,1156,0.005,0.05,0.02
N,1157,0.007,0.05,0.022
N,1158,0.005,0.05,0.022
N,1159,0.01,0.05,0.02
N,1160,0.01,0.05,0.022
N,1161,0.015,0.05,0.02
N,1162,0.015,0.05,0.022
N,1163,0.02,0.05,0.02
N,1164,0.02,0.05,0.022
N,1165,0.035,0.05,0.02
N,1166,0.035,0.05,0.022
N,1167,0.05,0.05,0.02
N,1168,0.05,0.05,0.022
N,1169,0.065,0.05,0.02
N,1170,0.065,0.05,0.022
N,1171,0.08,0.05,0.02
N,1172,0.08,0.05,0.022
N,1173,0.085,0.05,0.02
N,1174,0.085,0.05,0.022
N,1175,0.09,0.05,0.02
N,1176,0.09,0.05,0.022
N,1177,0.093,0.05,0.02
N,1178,0.093,0.05,0.022
N,1179,0.095,0.05,0.02
N,1180,0.095,0.05,0.022
N,1181,0.1,0.05,0.022
N,1182,0.098,0.05,0.022
N,1183,0.002,0.065,0.022
N,1184,0,0.065,0.022
N,1185,0.007,0.065,0.02
N,1186,0.005,0.065,0.02
N,1187,0.007,0.065,0.022
N,1188,0.005,0.065,0.022
N,1189,0.01,0.065,0.02
N,1190,0.01,0.065,0.022
N,1191,0.015,0.065,0.02
N,1192,0.015,0.065,0.022
N,1193,0.02,0.065,0.02
N,1194,0.02,0.065,0.022
N,1195,0.035,0.065,0.02
N,1196,0.035,0.065,0.022
N,1197,0.05,0.065,0.02
N,1198,0.05,0.065,0.022
N,1199,0.065,0.065,0.02
N,1200,0.065,0.065,0.022
N,1201,0.08,0.065,0.02
N,1202,0.08,0.065,0.022
N,1203,0.085,0.065,0.02
N,1204,0.085,0.065,0.022
N,1205,0.09,0.065,0.02
N,1206,0.09,0.065,0.022
N,1207,0.093,0.065,0.02
N,1208,0.093,0.065,0.022
N,1209,0.095,0.065,0.02
N,1210,0.095,0.065,0.022
N,1211,0.1,0.065,0.022
N,1212,0.098,0.065,0.022
N,1213,0.002,0.08,0.022
N,1214,0,0.08,0.022
N,1215,0.007,0.08,0.02
N,1216,0.005,0.08,0.02
N,1217,0.007,0.08,0.022
N,1218,0.005,0.08,0.022
N,1219,0.01,0.08,0.02
N,1220,0.01,0.08,0.022
N,1221,0.015,0.08,0.02
N,1222,0.015,0.08,0.022
N,1223,0.02,0.08,0.02
N,1224,0.02,0.08,0.022
N,1225,0.035,0.08,0.02
N,1226,0.035,0.08,0.022
N,1227,0.05,0.08,0.02
N,1228,0.05,0.08,0.022
N,1229,0.065,0.08,0.02
N,1230,0.065,0.08,0.022
N,1231,0.08,0.08,0.02
N,1232,0.08,0.08,0.022
N,1233,0.085,0.08,0.02
N,1234,0.085,0.08,0.022
N,1235,0.09,0.08,0.02
N,1236,0.09,0.08,0.022
N,1237,0.093,0.08,0.02
N,1238,0.093,0.08,0.022
N,1239,0.095,0.08,0.02
N,1240,0.095,0.08,0.022
N,1241,0.1,0.08,0.022
N,1242,0.098,0.08,0.022
N,1243,0.002,0.085,0.022
N,1244,0,0.085,0.022
N,1245,0.007,0.085,0.02
N,1246,0.005,0.085,0.02
N,1247,0.007,0.085,0.022
N,1248,0.005,0.085,0.022
N,1249,0.01,0.085,0.022
N,1250,0.015,0.085,0.022
N,1251,0.02,0.085,0.02
N,1252,0.02,0.085,0.022
N,1253,0.035,0.085,0.02
N,1254,0.035,0.085,0.022
N,1255,0.05,0.085,0.02
N,1256,0.05,0.085,0.022
N,1257,0.065,0.085,0.02
N,1258,0.065,0.085,0.022
N,1259,0.08,0.085,0.02
N,1260,0.08,0.085,0.022
N,1261,0.085,0.085,0.022
N,1262,0.09,0.085,0.022
N,1263,0.093,0.085,0.02
N,1264,0.093,0.085,0.022
N,1265,0.095,0.085,0.02
N,1266,0.095,0.085,0.022
N,1267,0.1,0.085,0.022
N,1268,0.098,0.085,0.022
N,1269,0.002,0.09,0.022
N,1270,0,0.09,0.022
N,1271,0.007,0.09,0.02
N,1272,0.005,0.09,0.02
N,1273,0.007,0.09,0.022
N,1274,0.005,0.09,0.022
N,1275,0.01,0.09,0.022
N,1276,0.015,0.09,0.022
N,1277,0.02,0.09,0.02
N,1278,0.02,0.09,0.022
N,1279,0.035,0.09,0.02
N,1280,0.035,0.09,0.022
N,1281,0.05,0.09,0.02
N,1282,0.05,0.09,0.022
N,1283,0.065,0.09,0.02
N,1284,0.065,0.09,0.022
N,1285,0.08,0.09,0.02
N,1286,0.08,0.09,0.022
N,1287,0.085,0.09,0.022
N,1288,0.09,0.09,0.022
N,1289,0.093,0.09,0.02
N,1290,0.093,0.09,0.022
N,1291,0.095,0.09,0.02
N,1292,0.095,0.09,0.022
N,1293,0.1,0.09,0.022
N,1294,0.098,0.09,0.022
N,1295,0.002,0.093,0.022
N,1296,0,0.093,0.022
N,1297,0.007,0.093,0.022
N,1298,0.005,0.093,0.022
N,1299,0.01,0.093,0.02
N,1300,0.01,0.093,0.022
N,1301,0.015,0.093,0.02
N,1302,0.015,0.093,0.022
N,1303,0.02,0.093,0.02
N,1304,0.02,0.093,0.022
N,1305,0.035,0.093,0.02
N,1306,0.035,0.093,0.022
N,1307,0.05,0.093,0.02
N,1308,0.05,0.093,0.022
N,1309,0.065,0.093,0.02
N,1310,0.065,0.093,0.022
N,1311,0.08,0.093,0.02
N,1312,0.08,0.093,0.022
N,1313,0.085,0.093,0.02
N,1314,0.085,0.093,0.022
N,1315,0.09,0.093,0.02
N,1316,0.09,0.093,0.022
N,1317,0.093,0.093,0.022
N,1318,0.095,0.093,0.022
N,1319,0.1,0.093,0.022
N,1320,0.098,0.093,0.022
N,1321,0.002,0.095,0.022
N,1322,0,0.095,0.022
N,1323,0.005,0.095,0.022
N,1324,0.007,0.095,0.022
N,1325,0.01,0.095,0.02
N,1326,0.01,0.095,0.022
N,1327,0.015,0.095,0.02
N,1328,0.015,0.095,0.022
N,1329,0.02,0.095,0.02
N,1330,0.02,0.095,0.022
N,1331,0.035,0.095,0.02
N,1332,0.035,0.095,0.022
N,1333,0.05,0.095,0.02
N,1334,0.05,0.095,0.022
N,1335,0.065,0.095,0.02
N,1336,0.065,0.095,0.022
N,1337,0.08,0.095,0.02
N,1338,0.08,0.095,0.022
N,1339,0.085,0.095,0.02
N,1340,0.085,0.095,0.022
N,1341,0.09,0.095,0.02
N,1342,0.09,0.095,0.022
N,1343,0.093,0.095,0.022
N,1344,0.095,0.095,0.022
N,1345,0.098,0.095,0.022
N,1346,0.1,0.095,0.022
N,1347,0.002,0.098,0.022
N,1348,0,0.098,0.022
N,1349,0.005,0.098,0.022
N,1350,0.007,0.098,0.022
N,1351,0.095,0.098,0.022
N,1352,0.093,0.098,0.022
N,1353,0.098,0.098,0.022
N,1354,0.1,0.098,0.022
N,1355,0.002,0.1,0.022
N,1356,0,0.1,0.022
N,1357,0.005,0.1,0.022
N,1358,0.007,0.1,0.022
N,1359,0.01,0.098,0.022
N,1360,0.01,0.1,0.022
N,1361,0.015,0.098,0.022
N,1362,0.015,0.1,0.022
N,1363,0.02,0.098,0.022
N,1364,0.02,0.1,0.022
N,1365,0.035,0.098,0.022
N,1366,0.035,0.1,0.022
N,1367,0.05,0.098,0.022
N,1368,0.05,0.1,0.022
N,1369,0.065,0.098,0.022
N,1370,0.065,0.1,0.022
N,1371,0.08,0.098,0.022
N,1372,0.08,0.1,0.022
N,1373,0.085,0.098,0.022
N,1374,0.085,0.1,0.022
N,1375,0.09,0.098,0.022
N,1376,0.09,0.1,0.022
N,1377,0.093,0.1,0.022
N,1378,0.095,0.1,0.022
N,1379,0.098,0.1,0.022
N,1380,0.1,0.1,0.022
N,1381,0,0,0.037
N,1382,0.002,0,0.037
N,1383,0.002,0.002,0.037
N,1384,0,0.002,0.037
N,1385,0.005,0,0.037
N,1386,0.005,0.002,0.037
N,1387,0.007,0,0.037
N,1388,0.007,0.002,0.037
N,1389,0.01,0,0.037
N,1390,0.01,0.002,0.037
N,1391,0.015,0,0.037
N,1392,0.015,0.002,0.037
N,1393,0.02,0,0.037
N,1394,0.02,0.002,0.037
N,1395,0.035,0,0.037
N,1396,0.035,0.002,0.037
N,1397,0.05,0,0.037
N,1398,0.05,0.002,0.037
N,1399,0.065,0,0.037
N,1400,0.065,0.002,0.037
N,1401,0.08,0,0.037
N,1402,0.08,0.002,0.037
N,1403,0.085,0,0.037
N,1404,0.085,0.002,0.037
N,1405,0.09,0,0.037
N,1406,0.09,0.002,0.037
N,1407,0.093,0,0.037
N,1408,0.093,0.002,0.037
N,1409,0.095,0,0.037
N,1410,0.095,0.002,0.037
N,1411,0.098,0,0.037
N,1412,0.098,0.002,0.037
N,1413,0.1,0,0.037
N,1414,0.1,0.002,0.037
N,1415,0.002,0.005,0.037
N,1416,0,0.005,0.037
N,1417,0.005,0.005,0.037
N,1418,0.007,0.005,0.037
N,1419,0.095,0.005,0.037
N,1420,0.093,0.005,0.037
N,1421,0.098,0.005,0.037
N,1422,0.1,0.005,0.037
N,1423,0.002,0.007,0.037
N,1424,0,0.007,0.037
N,1425,0.005,0.007,0.037
N,1426,0.007,0.007,0.037
N,1427,0.095,0.007,0.037
N,1428,0.093,0.007,0.037
N,1429,0.098,0.007,0.037
N,1430,0.1,0.007,0.037
N,1431,0.002,0.01,0.037
N,1432,0,0.01,0.037
N,1433,0.1,0.01,0.037
N,1434,0.098,0.01,0.037
N,1435,0.002,0.015,0.037
N,1436,0,0.015,0.037
N,1437,0.01,0.01,0.037
N,1438,0.015,0.01,0.037
N,1439,0.015,0.015,0.037
N,1440,0.01,0.015,0.037
N,1441,0.085,0.01,0.037
N,1442,0.09,0.01,0.037
N,1443,0.09,0.015,0.037
N,1444,0.085,0.015,0.037
N,1445,0.1,0.015,0.037
N,1446,0.098,0.015,0.037
N,1447,0.002,0.02,0.037
N,1448,0,0.02,0.037
N,1449,0.1,0.02,0.037
N,1450,0.098,0.02,0.037
N,1451,0.002,0.035,0.037
N,1452,0,0.035,0.037
N,1453,0.1,0.035,0.037
N,1454,0.098,0.035,0.037
N,1455,0.002,0.05,0.037
N,1456,0,0.05,0.037
N,1457,0.1,0.05,0.037
N,1458,0.098,0.05,0.037
N,1459,0.002,0.065,0.037
N,1460,0,0.065,0.037
N,1461,0.1,0.065,0.037
N,1462,0.098,0.065,0.037
N,1463,0.002,0.08,0.037
N,1464,0,0.08,0.037
N,1465,0.1,0.08,0.037
N,1466,0.098,0.08,0.037
N,1467,0.002,0.085,0.037
N,1468,0,0.085,0.037
N,1469,0.1,0.085,0.037
N,1470,0.098,0.085,0.037
N,1471,0.002,0.09,0.037
N,1472,0,0.09,0.037
N,1473,0.01,0.085,0.037
N,1474,0.015,0.085,0.037
N,1475,0.015,0.09,0.037
N,1476,0.01,0.09,0.037
N,1477,0.085,0.085,0.037
N,1478,0.09,0.085,0.037
N,1479,0.09,0.09,0.037
N,1480,0.085,0.09,0.037
N,1481,0.1,0.09,0.037
N,1482,0.098,0.09,0.037
N,1483,0.002,0.093,0.037
N,1484,0,0.093,0.037
N,1485,0.1,0.093,0.037
N,1486,0.098,0.093,0.037
N,1487,0.002,0.095,0.037
N,1488,0,0.095,0.037
N,1489,0.005,0.093,0.037
N,1490,0.005,0.095,0.037
N,1491,0.007,0.093,0.037
N,1492,0.007,0.095,0.037
N,1493,0.093,0.093,0.037
N,1494,0.095,0.093,0.037
N,1495,0.095,0.095,0.037
N,1496,0.093,0.095,0.037
N,1497,0.098,0.095,0.037
N,1498,0.1,0.095,0.037
N,1499,0.002,0.098,0.037
N,1500,0,0.098,0.037
N,1501,0.005,0.098,0.037
N,1502,0.007,0.098,0.037
N,1503,0.095,0.098,0.037
N,1504,0.093,0.098,0.037
N,1505,0.098,0.098,0.037
N,1506,0.1,0.098,0.037
N,1507,0.002,0.1,0.037
N,1508,0,0.1,0.037
N,1509,0.005,0.1,0.037
N,1510,0.007,0.1,0.037
N,1511,0.01,0.098,0.037
N,1512,0.01,0.1,0.037
N,1513,0.015,0.098,0.037
N,1514,0.015,0.1,0.037
N,1515,0.02,0.098,0.037
N,1516,0.02,0.1,0.037
N,1517,0.035,0.098,0.037
N,1518,0.035,0.1,0.037
N,1519,0.05,0.098,0.037
N,1520,0.05,0.1,0.037
N,1521,0.065,0.098,0.037
N,1522,0.065,0.1,0.037
N,1523,0.08,0.098,0.037
N,1524,0.08,0.1,0.037
N,1525,0.085,0.098,0.037
N,1526,0.085,0.1,0.037
N,1527,0.09,0.098,0.037
N,1528,0.09,0.1,0.037
N,1529,0.093,0.1,0.037
N,1530,0.095,0.1,0.037
N,1531,0.098,0.1,0.037
N,1532,0.1,0.1,0.037
N,1533,0,0,0.039
N,1534,0.002,0,0.039
N,1535,0.002,0.002,0.039
N,1536,0,0.002,0.039
N,1537,0.005,0,0.039
N,1538,0.005,0.002,0.039
N,1539,0.007,0,0.039
N,1540,0.007,0.002,0.039
N,1541,0.01,0,0.039
N,1542,0.01,0.002,0.039
N,1543,0.015,0,0.039
N,1544,0.015,0.002,0.039
N,1545,0.02,0,0.039
N,1546,0.02,0.002,0.039
N,1547,0.035,0,0.039
N,1548,0.035,0.002,0.039
N,1549,0.05,0,0.039
N,1550,0.05,0.002,0.039
N,1551,0.065,0,0.039
N,1552,0.065,0.002,0.039
N,1553,0.08,0,0.039
N,1554,0.08,0.002,0.039
N,1555,0.085,0,0.039
N,1556,0.085,0.002,0.039
N,1557,0.09,0,0.039
N,1558,0.09,0.002,0.039
N,1559,0.093,0,0.039
N,1560,0.093,0.002,0.039
N,1561,0.095,0,0.039
N,1562,0.095,0.002,0.039
N,1563,0.098,0,0.039
N,1564,0.098,0.002,0.039
N,1565,0.1,0,0.039
N,1566,0.1,0.002,0.039
N,1567,0.002,0.005,0.039
N,1568,0,0.005,0.039
N,1569,0.005,0.005,0.039
N,1570,0.007,0.005,0.039
N,1571,0.095,0.005,0.039
N,1572,0.093,0.005,0.039
N,1573,0.098,0.005,0.039
N,1574,0.1,0.005,0.039
N,1575,0.002,0.007,0.039
N,1576,0,0.007,0.039
N,1577,0.005,0.007,0.039
N,1578,0.007,0.007,0.039
N,1579,0.01,0.005,0.037
N,1580,0.01,0.007,0.037
N,1581,0.01,0.005,0.039
N,1582,0.01,0.007,0.039
N,1583,0.015,0.005,0.037
N,1584,0.015,0.007,0.037
N,1585,0.015,0.005,0.039
N,1586,0.015,0.007,0.039
N,1587,0.02,0.005,0.037
N,1588,0.02,0.007,0.037
N,1589,0.02,0.005,0.039
N,1590,0.02,0.007,0.039
N,1591,0.035,0.005,0.037
N,1592,0.035,0.007,0.037
N,1593,0.035,0.005,0.039
N,1594,0.035,0.007,0.039
N,1595,0.05,0.005,0.037
N,1596,0.05,0.007,0.037
N,1597,0.05,0.005,0.039
N,1598,0.05,0.007,0.039
N,1599,0.065,0.005,0.037
N,1600,0.065,0.007,0.037
N,1601,0.065,0.005,0.039
N,1602,0.065,0.007,0.039
N,1603,0.08,0.005,0.037
N,1604,0.08,0.007,0.037
N,1605,0.08,0.005,0.039
N,1606,0.08,0.007,0.039
N,1607,0.085,0.005,0.037
N,1608,0.085,0.007,0.037
N,1609,0.085,0.005,0.039
N,1610,0.085,0.007,0.039
N,1611,0.09,0.005,0.037
N,1612,0.09,0.007,0.037
N,1613,0.09,0.005,0.039
N,1614,0.09,0.007,0.039
N,1615,0.093,0.007,0.039
N,1616,0.095,0.007,0.039
N,1617,0.098,0.007,0.039
N,1618,0.1,0.007,0.039
N,1619,0.002,0.01,0.039
N,1620,0,0.01,0.039
N,1621,0.007,0.01,0.037
N,1622,0.005,0.01,0.037
N,1623,0.007,0.01,0.039
N,1624,0.005,0.01,0.039
N,1625,0.01,0.01,0.039
N,1626,0.015,0.01,0.039
N,1627,0.02,0.01,0.037
N,1628,0.02,0.01,0.039
N,1629,0.035,0.01,0.037
N,1630,0.035,0.01,0.039
N,1631,0.05,0.01,0.037
N,1632,0.05,0.01,0.039
N,1633,0.065,0.01,0.037
N,1634,0.065,0.01,0.039
N,1635,0.08,0.01,0.037
N,1636,0.08,0.01,0.039
N,1637,0.085,0.01,0.039
N,1638,0.09,0.01,0.039
N,1639,0.093,0.01,0.037
N,1640,0.093,0.01,0.039
N,1641,0.095,0.01,0.037
N,1642,0.095,0.01,0.039
N,1643,0.1,0.01,0.039
N,1644,0.098,0.01,0.039
N,1645,0.002,0.015,0.039
N,1646,0,0.015,0.039
N,1647,0.007,0.015,0.037
N,1648,0.005,0.015,0.037
N,1649,0.007,0.015,0.039
N,1650,0.005,0.015,0.039
N,1651,0.01,0.015,0.039
N,1652,0.015,0.015,0.039
N,1653,0.02,0.015,0.037
N,1654,0.02,0.015,0.039
N,1655,0.035,0.015,0.037
N,1656,0.035,0.015,0.039
N,1657,0.05,0.015,0.037
N,1658,0.05,0.015,0.039
N,1659,0.065,0.015,0.037
N,1660,0.065,0.015,0.039
N,1661,0.08,0.015,0.037
N,1662,0.08,0.015,0.039
N,1663,0.085,0.015,0.039
N,1664,0.09,0.015,0.039
N,1665,0.093,0.015,0.037
N,1666,0.093,0.015,0.039
N,1667,0.095,0.015,0.037
N,1668,0.095,0.015,0.039
N,1669,0.1,0.015,0.039
N,1670,0.098,0.015,0.039
N,1671,0.002,0.02,0.039
N,1672,0,0.02,0.039
N,1673,0.007,0.02,0.037
N,1674,0.005,0.02,0.037
N,1675,0.007,0.02,0.039
N,1676,0.005,0.02,0.039
N,1677,0.01,0.02,0.037
N,1678,0.01,0.02,0.039
N,1679,0.015,0.02,0.037
N,1680,0.015,0.02,0.039
N,1681,0.02,0.02,0.037
N,1682,0.02,0.02,0.039
N,1683,0.035,0.02,0.037
N,1684,0.035,0.02,0.039
N,1685,0.05,0.02,0.037
N,1686,0.05,0.02,0.039
N,1687,0.065,0.02,0.037
N,1688,0.065,0.02,0.039
N,1689,0.08,0.02,0.037
N,1690,0.08,0.02,0.039
N,1691,0.085,0.02,0.037
N,1692,0.085,0.02,0.039
N,1693,0.09,0.02,0.037
N,1694,0.09,0.02,0.039
N,1695,0.093,0.02,0.037
N,1696,0.093,0.02,0.039
N,1697,0.095,0.02,0.037
N,1698,0.095,0.02,0.039
N,1699,0.1,0.02,0.039
N,1700,0.098,0.02,0.039
N,1701,0.002,0.035,0.039
N,1702,0,0.035,0.039
N,1703,0.007,0.035,0.037
N,1704,0.005,0.035,0.037
N,1705,0.007,0.035,0.039
N,1706,0.005,0.035,0.039
N,1707,0.01,0.035,0.037
N,1708,0.01,0.035,0.039
N,1709,0.015,0.035,0.037
N,1710,0.015,0.035,0.039
N,1711,0.02,0.035,0.037
N,1712,0.02,0.035,0.039
N,1713,0.035,0.035,0.037
N,1714,0.035,0.035,0.039
N,1715,0.05,0.035,0.037
N,1716,0.05,0.035,0.039
N,1717,0.065,0.035,0.037
N,1718,0.065,0.035,0.039
N,1719,0.08,0.035,0.037
N,1720,0.08,0.035,0.039
N,1721,0.085,0.035,0.037
N,1722,0.085,0.035,0.039
N,1723,0.09,0.035,0.037
N,1724,0.09,0.035,0.039
N,1725,0.093,0.035,0.037
N,1726,0.093,0.035,0.039
N,1727,0.095,0.035,0.037
N,1728,0.095,0.035,0.039
N,1729,0.1,0.035,0.039
N,1730,0.098,0.035,0.039
N,1731,0.002,0.05,0.039
N,1732,0,0.05,0.039
N,1733,0.007,0.05,0.037
N,1734,0.005,0.05,0.037
N,1735,0.007,0.05,0.039
N,1736,0.005,0.05,0.039
N,1737,0.01,0.05,0.037
N,1738,0.01,0.05,0.039
N,1739,0.015,0.05,0.037
N,1740,0.015,0.05,0.039
N,1741,0.02,0.05,0.037
N,1742,0.02,0.05,0.039
N,1743,0.035,0.05,0.037
N,1744,0.035,0.05,0.039
N,1745,0.05,0.05,0.037
N,1746,0.05,0.05,0.039
N,1747,0.065,0.05,0.037
N,1748,0.065,0.05,0.039
N,1749,0.08,0.05,0.037
N,1750,0.08,0.05,0.039
N,1751,0.085,0.05,0.037
N,1752,0.085,0.05,0.039
N,1753,0.09,0.05,0.037
N,1754,0.09,0.05,0.039
N,1755,0.093,0.05,0.037
N,1756,0.093,0.05,0.039
N,1757,0.095,0.05,0.037
N,1758,0.095,0.05,0.039
N,1759,0.1,0.05,0.039
N,1760,0.098,0.05,0.039
N,1761,0.002,0.065,0.039
N,1762,0,0.065,0.039
N,1763,0.007,0.065,0.037
N,1764,0.005,0.065,0.037
N,1765,0.007,0.065,0.039
N,1766,0.005,0.065,0.039
N,1767,0.01,0.065,0.037
N,1768,0.01,0.065,0.039
N,1769,0.015,0.065,0.037
N,1770,0.015,0.065,0.039
N,1771,0.02,0.065,0.037
N,1772,0.02,0.065,0.039
N,1773,0.035,0.065,0.037
N,1774,0.035,0.065,0.039
N,1775,0.05,0.065,0.037
N,1776,0.05,0.065,0.039
N,1777,0.065,0.065,0.037
N,1778,0.065,0.065,0.039
N,1779,0.08,0.065,0.037
N,1780,0.08,0.065,0.039
N,1781,0.085,0.065,0.037
N,1782,0.085,0.065,0.039
N,1783,0.09,0.065,0.037
N,1784,0.09,0.065,0.039
N,1785,0.093,0.065,0.037
N,1786,0.093,0.065,0.039
N,1787,0.095,0.065,0.037
N,1788,0.095,0.065,0.039
N,1789,0.1,0.065,0.039
N,1790,0.098,0.065,0.039
N,1791,0.002,0.08,0.039
N,1792,0,0.08,0.039
N,1793,0.007,0.08,0.037
N,1794,0.005,0.08,0.037
N,1795,0.007,0.08,0.039
N,1796,0.005,0.08,0.039
N,1797,0.01,0.08,0.037
N,1798,0.01,0.08,0.039
N,1799,0.015,0.08,0.037
N,1800,0.015,0.08,0.039
N,1801,0.02,0.08,0.037
N,1802,0.02,0.08,0.039
N,1803,0.035,0.08,0.037
N,1804,0.035,0.08,0.039
N,1805,0.05,0.08,0.037
N,1806,0.05,0.08,0.039
N,1807,0.065,0.08,0.037
N,1808,0.065,0.08,0.039
N,1809,0.08,0.08,0.037
N,1810,0.08,0.08,0.039
N,1811,0.085,0.08,0.037
N,1812,0.085,0.08,0.039
N,1813,0.09,0.08,0.037
N,1814,0.09,0.08,0.039
N,1815,0.093,0.08,0.037
N,1816,0.093,0.08,0.039
N,1817,0.095,0.08,0.037
N,1818,0.095,0.08,0.039
N,1819,0.1,0.08,0.039
N,1820,0.098,0.08,0.039
N,1821,0.002,0.085,0.039
N,1822,0,0.085,0.039
N,1823,0.007,0.085,0.037
N,1824,0.005,0.085,0.037
N,1825,0.007,0.085,0.039
N,1826,0.005,0.085,0.039
N,1827,0.01,0.085,0.039
N,1828,0.015,0.085,0.039
N,1829,0.02,0.085,0.037
N,1830,0.02,0.085,0.039
N,1831,0.035,0.085,0.037
N,1832,0.035,0.085,0.039
N,1833,0.05,0.085,0.037
N,1834,0.05,0.085,0.039
N,1835,0.065,0.085,0.037
N,1836,0.065,0.085,0.039
N,1837,0.08,0.085,0.037
N,1838,0.08,0.085,0.039
N,1839,0.085,0.085,0.039
N,1840,0.09,0.085,0.039
N,1841,0.093,0.085,0.037
N,1842,0.093,0.085,0.039
N,1843,0.095,0.085,0.037
N,1844,0.095,0.085,0.039
N,1845,0.1,0.085,0.039
N,1846,0.098,0.085,0.039
N,1847,0.002,0.09,0.039
N,1848,0,0.09,0.039
N,1849,0.007,0.09,0.037
N,1850,0.005,0.09,0.037
N,1851,0.007,0.09,0.039
N,1852,0.005,0.09,0.039
N,1853,0.01,0.09,0.039
N,1854,0.015,0.09,0.039
N,1855,0.02,0.09,0.037
N,1856,0.02,0.09,0.039
N,1857,0.035,0.09,0.037
N,1858,0.035,0.09,0.039
N,1859,0.05,0.09,0.037
N,1860,0.05,0.09,0.039
N,1861,0.065,0.09,0.037
N,1862,0.065,0.09,0.039
N,1863,0.08,0.09,0.037
N,1864,0.08,0.09,0.039
N,1865,0.085,0.09,0.039
N,1866,0.09,0.09,0.039
N,1867,0.093,0.09,0.037
N,1868,0.093,0.09,0.039
N,1869,0.095,0.09,0.037
N,1870,0.095,0.09,0.039
N,1871,0.1,0.09,0.039
N,1872,0.098,0.09,0.039
N,1873,0.002,0.093,0.039
N,1874,0,0.093,0.039
N,1875,0.007,0.093,0.039
N,1876,0.005,0.093,0.039
N,1877,0.01,0.093,0.037
N,1878,0.01,0.093,0.039
N,1879,0.015,0.093,0.037
N,1880,0.015,0.093,0.039
N,1881,0.02,0.093,0.037
N,1882,0.02,0.093,0.039
N,1883,0.035,0.093,0.037
N,1884,0.035,0.093,0.039
N,1885,0.05,0.093,0.037
N,1886,0.05,0.093,0.039
N,1887,0.065,0.093,0.037
N,1888,0.065,0.093,0.039
N,1889,0.08,0.093,0.037
N,1890,0.08,0.093,0.039
N,1891,0.085,0.093,0.037
N,1892,0.085,0.093,0.039
N,1893,0.09,0.093,0.037
N,1894,0.09,0.093,0.039
N,1895,0.093,0.093,0.039
N,1896,0.095,0.093,0.039
N,1897,0.1,0.093,0.039
N,1898,0.098,0.093,0.039
N,1899,0.002,0.095,0.039
N,1900,0,0.095,0.039
N,1901,0.005,0.095,0.039
N,1902,0.007,0.095,0.039
N,1903,0.01,0.095,0.037
N,1904,0.01,0.095,0.039
N,1905,0.015,0.095,0.037
N,1906,0.015,0.095,0.039
N,1907,0.02,0.095,0.037
N,1908,0.02,0.095,0.039
N,1909,0.035,0.095,0.037
N,1910,0.035,0.095,0.039
N,1911,0.05,0.095,0.037
N,1912,0.05,0.095,0.039
N,1913,0.065,0.095,0.037
N,1914,0.065,0.095,0.039
N,1915,0.08,0.095,0.037
N,1916,0.08,0.095,0.039
N,1917,0.085,0.095,0.037
N,1918,0.085,0.095,0.039
N,1919,0.09,0.095,0.037
N,1920,0.09,0.095,0.039
N,1921,0.093,0.095,0.039
N,1922,0.095,0.095,0.039
N,1923,0.098,0.095,0.039
N,1924,0.1,0.095,0.039
N,1925,0.002,0.098,0.039
N,1926,0,0.098,0.039
N,1927,0.005,0.098,0.039
N,1928,0.007,0.098,0.039
N,1929,0.095,0.098,0.039
N,1930,0.093,0.098,0.039
N,1931,0.098,0.098,0.039
N,1932,0.1,0.098,0.039
N,1933,0.002,0.1,0.039
N,1934,0,0.1,0.039
N,1935,0.005,0.1,0.039
N,1936,0.007,0.1,0.039
N,1937,0.01,0.098,0.039
N,1938,0.01,0.1,0.039
N,1939,0.015,0.098,0.039
N,1940,0.015,0.1,0.039
N,1941,0.02,0.098,0.039
N,1942,0.02,0.1,0.039
N,1943,0.035,0.098,0.039
N,1944,0.035,0.1,0.039
N,1945,0.05,0.098,0.039
N,1946,0.05,0.1,0.039
N,1947,0.065,0.098,0.039
N,1948,0.065,0.1,0.039
N,1949,0.08,0.098,0.039
N,1950,0.08,0.1,0.039
N,1951,0.085,0.098,0.039
N,1952,0.085,0.1,0.039
N,1953,0.09,0.098,0.039
N,1954,0.09,0.1,0.039
N,1955,0.093,0.1,0.039
N,1956,0.095,0.1,0.039
N,1957,0.098,0.1,0.039
N,1958,0.1,0.1,0.039
N,1959,0,0,0.048
N,1960,0.002,0,0.048
N,1961,0.002,0.002,0.048
N,1962,0,0.002,0.048
N,1963,0.005,0,0.048
N,1964,0.005,0.002,0.048
N,1965,0.007,0,0.048
N,1966,0.007,0.002,0.048
N,1967,0.01,0,0.048
N,1968,0.01,0.002,0.048
N,1969,0.015,0,0.048
N,1970,0.015,0.002,0.048
N,1971,0.02,0,0.048
N,1972,0.02,0.002,0.048
N,1973,0.035,0,0.048
N,1974,0.035,0.002,0.048
N,1975,0.05,0,0.048
N,1976,0.05,0.002,0.048
N,1977,0.065,0,0.048
N,1978,0.065,0.002,0.048
N,1979,0.08,0,0.048
N,1980,0.08,0.002,0.048
N,1981,0.085,0,0.048
N,1982,0.085,0.002,0.048
N,1983,0.09,0,0.048
N,1984,0.09,0.002,0.048
N,1985,0.093,0,0.048
N,1986,0.093,0.002,0.048
N,1987,0.095,0,0.048
N,1988,0.095,0.002,0.048
N,1989,0.098,0,0.048
N,1990,0.098,0.002,0.048
N,1991,0.1,0,0.048
N,1992,0.1,0.002,0.048
N,1993,0.002,0.005,0.048
N,1994,0,0.005,0.048
N,1995,0.005,0.005,0.048
N,1996,0.007,0.005,0.048
N,1997,0.095,0.005,0.048
N,1998,0.093,0.005,0.048
N,1999,0.098,0.005,0.048
N,2000,0.1,0.005,0.048
N,2001,0.002,0.007,0.048
N,2002,0,0.007,0.048
N,2003,0.005,0.007,0.048
N,2004,0.007,0.007,0.048
N,2005,0.095,0.007,0.048
N,2006,0.093,0.007,0.048
N,2007,0.098,0.007,0.048
N,2008,0.1,0.007,0.048
N,2009,0.002,0.01,0.048
N,2010,0,0.01,0.048
N,2011,0.1,0.01,0.048
N,2012,0.098,0.01,0.048
N,2013,0.002,0.015,0.048
N,2014,0,0.015,0.048
N,2015,0.01,0.01,0.048
N,2016,0.015,0.01,0.048
N,2017,0.015,0.015,0.048
N,2018,0.01,0.015,0.048
N,2019,0.085,0.01,0.048
N,2020,0.09,0.01,0.048
N,2021,0.09,0.015,0.048
N,2022,0.085,0.015,0.048
N,2023,0.1,0.015,0.048
N,2024,0.098,0.015,0.048
N,2025,0.002,0.02,0.048
N,2026,0,0.02,0.048
N,2027,0.1,0.02,0.048
N,2028,0.098,0.02,0.048
N,2029,0.002,0.035,0.048
N,2030,0,0.035,0.048
N,2031,0.02,0.02,0.048
N,2032,0.035,0.02,0.048
N,2033,0.035,0.035,0.048
N,2034,0.02,0.035,0.048
N,2035,0.05,0.02,0.048
N,2036,0.05,0.035,0.048
N,2037,0.065,0.02,0.048
N,2038,0.065,0.035,0.048
N,2039,0.08,0.02,0.048
N,2040,0.08,0.035,0.048
N,2041,0.1,0.035,0.048
N,2042,0.098,0.035,0.048
N,2043,0.002,0.05,0.048
N,2044,0,0.05,0.048
N,2045,0.035,0.05,0.048
N,2046,0.02,0.05,0.048
N,2047,0.05,0.05,0.048
N,2048,0.065,0.05,0.048
N,2049,0.08,0.05,0.048
N,2050,0.1,0.05,0.048
N,2051,0.098,0.05,0.048
N,2052,0.002,0.065,0.048
N,2053,0,0.065,0.048
N,2054,0.035,0.065,0.048
N,2055,0.02,0.065,0.048
N,2056,0.05,0.065,0.048
N,2057,0.065,0.065,0.048
N,2058,0.08,0.065,0.048
N,2059,0.1,0.065,0.048
N,2060,0.098,0.065,0.048
N,2061,0.002,0.08,0.048
N,2062,0,0.08,0.048
N,2063,0.035,0.08,0.048
N,2064,0.02,0.08,0.048
N,2065,0.05,0.08,0.048
N,2066,0.065,0.08,0.048
N,2067,0.08,0.08,0.048
N,2068,0.1,0.08,0.048
N,2069,0.098,0.08,0.048
N,2070,0.002,0.085,0.048
N,2071,0,0.085,0.048
N,2072,0.1,0.085,0.048
N,2073,0.098,0.085,0.048
N,2074,0.002,0.09,0.048
N,2075,0,0.09,0.048
N,2076,0.01,0.085,0.048
N,2077,0.015,0.085,0.048
N,2078,0.015,0.09,0.048
N,2079,0.01,0.09,0.048
N,2080,0.085,0.085,0.048
N,2081,0.09,0.085,0.048
N,2082,0.09,0.09,0.048
N,2083,0.085,0.09,0.048
N,2084,0.1,0.09,0.048
N,2085,0.098,0.09,0.048
N,2086,0.002,0.093,0.048
N,2087,0,0.093,0.048
N,2088,0.1,0.093,0.048
N,2089,0.098,0.093,0.048
N,2090,0.002,0.095,0.048
N,2091,0,0.095,0.048
N,2092,0.005,0.093,0.048
N,2093,0.005,0.095,0.048
N,2094,0.007,0.093,0.048
N,2095,0.007,0.095,0.048
N,2096,0.093,0.093,0.048
N,2097,0.095,0.093,0.048
N,2098,0.095,0.095,0.048
N,2099,0.093,0.095,0.048
N,2100,0.098,0.095,0.048
N,2101,0.1,0.095,0.048
N,2102,0.002,0.098,0.048
N,2103,0,0.098,0.048
N,2104,0.005,0.098,0.048
N,2105,0.007,0.098,0.048
N,2106,0.095,0.098,0.048
N,2107,0.093,0.098,0.048
N,2108,0.098,0.098,0.048
N,2109,0.1,0.098,0.048
N,2110,0.002,0.1,0.048
N,2111,0,0.1,0.048
N,2112,0.005,0.1,0.048
N,2113,0.007,0.1,0.048
N,2114,0.01,0.098,0.048
N,2115,0.01,0.1,0.048
N,2116,0.015,0.098,0.048
N,2117,0.015,0.1,0.048
N,2118,0.02,0.098,0.048
N,2119,0.02,0.1,0.048
N,2120,0.035,0.098,0.048
N,2121,0.035,0.1,0.048
N,2122,0.05,0.098,0.048
N,2123,0.05,0.1,0.048
N,2124,0.065,0.098,0.048
N,2125,0.065,0.1,0.048
N,2126,0.08,0.098,0.048
N,2127,0.08,0.1,0.048
N,2128,0.085,0.098,0.048
N,2129,0.085,0.1,0.048
N,2130,0.09,0.098,0.048
N,2131,0.09,0.1,0.048
N,2132,0.093,0.1,0.048
N,2133,0.095,0.1,0.048
N,2134,0.098,0.1,0.048
N,2135,0.1,0.1,0.048
N,2136,0,0,0.061
N,2137,0.002,0,0.061
N,2138,0.002,0.002,0.061
N,2139,0,0.002,0.061
N,2140,0.005,0,0.061
N,2141,0.005,0.002,0.061
N,2142,0.007,0,0.061
N,2143,0.007,0.002,0.061
N,2144,0.01,0,0.061
N,2145,0.01,0.002,0.061
N,2146,0.015,0,0.061
N,2147,0.015,0.002,0.061
N,2148,0.02,0,0.061
N,2149,0.02,0.002,0.061
N,2150,0.035,0,0.061
N,2151,0.035,0.002,0.061
N,2152,0.05,0,0.061
N,2153,0.05,0.002,0.061
N,2154,0.065,0,0.061
N,2155,0.065,0.002,0.061
N,2156,0.08,0,0.061
N,2157,0.08,0.002,0.061
N,2158,0.085,0,0.061
N,2159,0.085,0.002,0.061
N,2160,0.09,0,0.061
N,2161,0.09,0.002,0.061
N,2162,0.093,0,0.061
N,2163,0.093,0.002,0.061
N,2164,0.095,0,0.061
N,2165,0.095,0.002,0.061
N,2166,0.098,0,0.061
N,2167,0.098,0.002,0.061
N,2168,0.1,0,0.061
N,2169,0.1,0.002,0.061
N,2170,0.002,0.005,0.061
N,2171,0,0.005,0.061
N,2172,0.005,0.005,0.061
N,2173,0.007,0.005,0.061
N,2174,0.095,0.005,0.061
N,2175,0.093,0.005,0.061
N,2176,0.098,0.005,0.061
N,2177,0.1,0.005,0.061
N,2178,0.002,0.007,0.061
N,2179,0,0.007,0.061
N,2180,0.005,0.007,0.061
N,2181,0.007,0.007,0.061
N,2182,0.095,0.007,0.061
N,2183,0.093,0.007,0.061
N,2184,0.098,0.007,0.061
N,2185,0.1,0.007,0.061
N,2186,0.002,0.01,0.061
N,2187,0,0.01,0.061
N,2188,0.1,0.01,0.061
N,2189,0.098,0.01,0.061
N,2190,0.002,0.015,0.061
N,2191,0,0.015,0.061
N,2192,0.01,0.01,0.061
N,2193,0.015,0.01,0.061
N,2194,0.015,0.015,0.061
N,2195,0.01,0.015,0.061
N,2196,0.085,0.01,0.061
N,2197,0.09,0.01,0.061
N,2198,0.09,0.015,0.061
N,2199,0.085,0.015,0.061
N,2200,0.1,0.015,0.061
N,2201,0.098,0.015,0.061
N,2202,0.002,0.02,0.061
N,2203,0,0.02,0.061
N,2204,0.1,0.02,0.061
N,2205,0.098,0.02,0.061
N,2206,0.002,0.035,0.061
N,2207,0,0.035,0.061
N,2208,0.1,0.035,0.061
N,2209,0.098,0.035,0.061
N,2210,0.002,0.05,0.061
N,2211,0,0.05,0.061
N,2212,0.1,0.05,0.061
N,2213,0.098,0.05,0.061
N,2214,0.002,0.065,0.061
N,2215,0,0.065,0.061
N,2216,0.1,0.065,0.061
N,2217,0.098,0.065,0.061
N,2218,0.002,0.08,0.061
N,2219,0,0.08,0.061
N,2220,0.1,0.08,0.061
N,2221,0.098,0.08,0.061
N,2222,0.002,0.085,0.061
N,2223,0,0.085,0.061
N,2224,0.1,0.085,0.061
N,2225,0.098,0.085,0.061
N,2226,0.002,0.09,0.061
N,2227,0,0.09,0.061
N,2228,0.01,0.085,0.061
N,2229,0.015,0.085,0.061
N,2230,0.015,0.09,0.061
N,2231,0.01,0.09,0.061
N,2232,0.085,0.085,0.061
N,2233,0.09,0.085,0.061
N,2234,0.09,0.09,0.061
N,2235,0.085,0.09,0.061
N,2236,0.1,0.09,0.061
N,2237,0.098,0.09,0.061
N,2238,0.002,0.093,0.061
N,2239,0,0.093,0.061
N,2240,0.1,0.093,0.061
N,2241,0.098,0.093,0.061
N,2242,0.002,0.095,0.061
N,2243,0,0.095,0.061
N,2244,0.005,0.093,0.061
N,2245,0.005,0.095,0.061
N,2246,0.007,0.093,0.061
N,2247,0.007,0.095,0.061
N,2248,0.093,0.093,0.061
N,2249,0.095,0.093,0.061
N,2250,0.095,0.095,0.061
N,2251,0.093,0.095,0.061
N,2252,0.098,0.095,0.061
N,2253,0.1,0.095,0.061
N,2254,0.002,0.098,0.061
N,2255,0,0.098,0.061
N,2256,0.005,0.098,0.061
N,2257,0.007,0.098,0.061
N,2258,0.095,0.098,0.061
N,2259,0.093,0.098,0.061
N,2260,0.098,0.098,0.061
N,2261,0.1,0.098,0.061
N,2262,0.002,0.1,0.061
N,2263,0,0.1,0.061
N,2264,0.005,0.1,0.061
N,2265,0.007,0.1,0.061
N,2266,0.01,0.098,0.061
N,2267,0.01,0.1,0.061
N,2268,0.015,0.098,0.061
N,2269,0.015,0.1,0.061
N,2270,0.02,0.098,0.061
N,2271,0.02,0.1,0.061
N,2272,0.035,0.098,0.061
N,2273,0.035,0.1,0.061
N,2274,0.05,0.098,0.061
N,2275,0.05,0.1,0.061
N,2276,0.065,0.098,0.061
N,2277,0.065,0.1,0.061
N,2278,0.08,0.098,0.061
N,2279,0.08,0.1,0.061
N,2280,0.085,0.098,0.061
N,2281,0.085,0.1,0.061
N,2282,0.09,0.098,0.061
N,2283,0.09,0.1,0.061
N,2284,0.093,0.1,0.061
N,2285,0.095,0.1,0.061
N,2286,0.098,0.1,0.061
N,2287,0.1,0.1,0.061
N,2288,0,0,0.063
N,2289,0.002,0,0.063
N,2290,0.002,0.002,0.063
N,2291,0,0.002,0.063
N,2292,0.005,0,0.063
N,2293,0.005,0.002,0.063
N,2294,0.007,0,0.063
N,2295,0.007,0.002,0.063
N,2296,0.01,0,0.063
N,2297,0.01,0.002,0.063
N,2298,0.015,0,0.063
N,2299,0.015,0.002,0.063
N,2300,0.02,0,0.063
N,2301,0.02,0.002,0.063
N,2302,0.035,0,0.063
N,2303,0.035,0.002,0.063
N,2304,0.05,0,0.063
N,2305,0.05,0.002,0.063
N,2306,0.065,0,0.063
N,2307,0.065,0.002,0.063
N,2308,0.08,0,0.063
N,2309,0.08,0.002,0.063
N,2310,0.085,0,0.063
N,2311,0.085,0.002,0.063
N,2312,0.09,0,0.063
N,2313,0.09,0.002,0.063
N,2314,0.093,0,0.063
N,2315,0.093,0.002,0.063
N,2316,0.095,0,0.063
N,2317,0.095,0.002,0.063
N,2318,0.098,0,0.063
N,2319,0.098,0.002,0.063
N,2320,0.1,0,0.063
N,2321,0.1,0.002,0.063
N,2322,0.002,0.005,0.063
N,2323,0,0.005,0.063
N,2324,0.005,0.005,0.063
N,2325,0.007,0.005,0.063
N,2326,0.095,0.005,0.063
N,2327,0.093,0.005,0.063
N,2328,0.098,0.005,0.063
N,2329,0.1,0.005,0.063
N,2330,0.002,0.007,0.063
N,2331,0,0.007,0.063
N,2332,0.005,0.007,0.063
N,2333,0.007,0.007,0.063
N,2334,0.01,0.005,0.061
N,2335,0.01,0.007,0.061
N,2336,0.01,0.005,0.063
N,2337,0.01,0.007,0.063
N,2338,0.015,0.005,0.061
N,2339,0.015,0.007,0.061
N,2340,0.015,0.005,0.063
N,2341,0.015,0.007,0.063
N,2342,0.02,0.005,0.061
N,2343,0.02,0.007,0.061
N,2344,0.02,0.005,0.063
N,2345,0.02,0.007,0.063
N,2346,0.035,0.005,0.061
N,2347,0.035,0.007,0.061
N,2348,0.035,0.005,0.063
N,2349,0.035,0.007,0.063
N,2350,0.05,0.005,0.061
N,2351,0.05,0.007,0.061
N,2352,0.05,0.005,0.063
N,2353,0.05,0.007,0.063
N,2354,0.065,0.005,0.061
N,2355,0.065,0.007,0.061
N,2356,0.065,0.005,0.063
N,2357,0.065,0.007,0.063
N,2358,0.08,0.005,0.061
N,2359,0.08,0.007,0.061
N,2360,0.08,0.005,0.063
N,2361,0.08,0.007,0.063
N,2362,0.085,0.005,0.061
N,2363,0.085,0.007,0.061
N,2364,0.085,0.005,0.063
N,2365,0.085,0.007,0.063
N,2366,0.09,0.005,0.061
N,2367,0.09,0.007,0.061
N,2368,0.09,0.005,0.063
N,2369,0.09,0.007,0.063
N,2370,0.093,0.007,0.063
N,2371,0.095,0.007,0.063
N,2372,0.098,0.007,0.063
N,2373,0.1,0.007,0.063
N,2374,0.002,0.01,0.063
N,2375,0,0.01,0.063
N,2376,0.007,0.01,0.061
N,2377,0.005,0.01,0.061
N,2378,0.007,0.01,0.063
N,2379,0.005,0.01,0.063
N,2380,0.01,0.01,0.063
N,2381,0.015,0.01,0.063
N,2382,0.02,0.01,0.061
N,2383,0.02,0.01,0.063
N,2384,0.035,0.01,0.061
N,2385,0.035,0.01,0.063
N,2386,0.05,0.01,0.061
N,2387,0.05,0.01,0.063
N,2388,0.065,0.01,0.061
N,2389,0.065,0.01,0.063
N,2390,0.08,0.01,0.061
N,2391,0.08,0.01,0.063
N,2392,0.085,0.01,0.063
N,2393,0.09,0.01,0.063
N,2394,0.093,0.01,0.061
N,2395,0.093,0.01,0.063
N,2396,0.095,0.01,0.061
N,2397,0.095,0.01,0.063
N,2398,0.1,0.01,0.063
N,2399,0.098,0.01,0.063
N,2400,0.002,0.015,0.063
N,2401,0,0.015,0.063
N,2402,0.007,0.015,0.061
N,2403,0.005,0.015,0.061
N,2404,0.007,0.015,0.063
N,2405,0.005,0.015,0.063
N,2406,0.01,0.015,0.063
N,2407,0.015,0.015,0.063
N,2408,0.02,0.015,0.061
N,2409,0.02,0.015,0.063
N,2410,0.035,0.015,0.061
N,2411,0.035,0.015,0.063
N,2412,0.05,0.015,0.061
N,2413,0.05,0.015,0.063
N,2414,0.065,0.015,0.061
N,2415,0.065,0.015,0.063
N,2416,0.08,0.015,0.061
N,2417,0.08,0.015,0.063
N,2418,0.085,0.015,0.063
N,2419,0.09,0.015,0.063
N,2420,0.093,0.015,0.061
N,2421,0.093,0.015,0.063
N,2422,0.095,0.015,0.061
N,2423,0.095,0.015,0.063
N,2424,0.1,0.015,0.063
N,2425,0.098,0.015,0.063
N,2426,0.002,0.02,0.063
N,2427,0,0.02,0.063
N,2428,0.007,0.02,0.061
N,2429,0.005,0.02,0.061
N,2430,0.007,0.02,0.063
N,2431,0.005,0.02,0.063
N,2432,0.01,0.02,0.061
N,2433,0.01,0.02,0.063
N,2434,0.015,0.02,0.061
N,2435,0.015,0.02,0.063
N,2436,0.02,0.02,0.061
N,2437,0.02,0.02,0.063
N,2438,0.035,0.02,0.061
N,2439,0.035,0.02,0.063
N,2440,0.05,0.02,0.061
N,2441,0.05,0.02,0.063
N,2442,0.065,0.02,0.061
N,2443,0.065,0.02,0.063
N,2444,0.08,0.02,0.061
N,2445,0.08,0.02,0.063
N,2446,0.085,0.02,0.061
N,2447,0.085,0.02,0.063
N,2448,0.09,0.02,0.061
N,2449,0.09,0.02,0.063
N,2450,0.093,0.02,0.061
N,2451,0.093,0.02,0.063
N,2452,0.095,0.02,0.061
N,2453,0.095,0.02,0.063
N,2454,0.1,0.02,0.063
N,2455,0.098,0.02,0.063
N,2456,0.002,0.035,0.063
N,2457,0,0.035,0.063
N,2458,0.007,0.035,0.061
N,2459,0.005,0.035,0.061
N,2460,0.007,0.035,0.063
N,2461,0.005,0.035,0.063
N,2462,0.01,0.035,0.061
N,2463,0.01,0.035,0.063
N,2464,0.015,0.035,0.061
N,2465,0.015,0.035,0.063
N,2466,0.02,0.035,0.061
N,2467,0.02,0.035,0.063
N,2468,0.035,0.035,0.061
N,2469,0.035,0.035,0.063
N,2470,0.05,0.035,0.061
N,2471,0.05,0.035,0.063
N,2472,0.065,0.035,0.061
N,2473,0.065,0.035,0.063
N,2474,0.08,0.035,0.061
N,2475,0.08,0.035,0.063
N,2476,0.085,0.035,0.061
N,2477,0.085,0.035,0.063
N,2478,0.09,0.035,0.061
N,2479,0.09,0.035,0.063
N,2480,0.093,0.035,0.061
N,2481,0.093,0.035,0.063
N,2482,0.095,0.035,0.061
N,2483,0.095,0.035,0.063
N,2484,0.1,0.035,0.063
N,2485,0.098,0.035,0.063
N,2486,0.002,0.05,0.063
N,2487,0,0.05,0.063
N,2488,0.007,0.05,0.061
N,2489,0.005,0.05,0.061
N,2490,0.007,0.05,0.063
N,2491,0.005,0.05,0.063
N,2492,0.01,0.05,0.061
N,2493,0.01,0.05,0.063
N,2494,0.015,0.05,0.061
N,2495,0.015,0.05,0.063
N,2496,0.02,0.05,0.061
N,2497,0.02,0.05,0.063
N,2498,0.035,0.05,0.061
N,2499,0.035,0.05,0.063
N,2500,0.05,0.05,0.061
N,2501,0.05,0.05,0.063
N,2502,0.065,0.05,0.061
N,2503,0.065,0.05,0.063
N,2504,0.08,0.05,0.061
N,2505,0.08,0.05,0.063
N,2506,0.085,0.05,0.061
N,2507,0.085,0.05,0.063
N,2508,0.09,0.05,0.061
N,2509,0.09,0.05,0.063
N,2510,0.093,0.05,0.061
N,2511,0.093,0.05,0.063
N,2512,0.095,0.05,0.061
N,2513,0.095,0.05,0.063
N,2514,0.1,0.05,0.063
N,2515,0.098,0.05,0.063
N,2516,0.002,0.065,0.063
N,2517,0,0.065,0.063
N,2518,0.007,0.065,0.061
N,2519,0.005,0.065,0.061
N,2520,0.007,0.065,0.063
N,2521,0.005,0.065,0.063
N,2522,0.01,0.065,0.061
N,2523,0.01,0.065,0.063
N,2524,0.015,0.065,0.061
N,2525,0.015,0.065,0.063
N,2526,0.02,0.065,0.061
N,2527,0.02,0.065,0.063
N,2528,0.035,0.065,0.061
N,2529,0.035,0.065,0.063
N,2530,0.05,0.065,0.061
N,2531,0.05,0.065,0.063
N,2532,0.065,0.065,0.061
N,2533,0.065,0.065,0.063
N,2534,0.08,0.065,0.061
N,2535,0.08,0.065,0.063
N,2536,0.085,0.065,0.061
N,2537,0.085,0.065,0.063
N,2538,0.09,0.065,0.061
N,2539,0.09,0.065,0.063
N,2540,0.093,0.065,0.061
N,2541,0.093,0.065,0.063
N,2542,0.095,0.065,0.061
N,2543,0.095,0.065,0.063
N,2544,0.1,0.065,0.063
N,2545,0.098,0.065,0.063
N,2546,0.002,0.08,0.063
N,2547,0,0.08,0.063
N,2548,0.007,0.08,0.061
N,2549,0.005,0.08,0.061
N,2550,0.007,0.08,0.063
N,2551,0.005,0.08,0.063
N,2552,0.01,0.08,0.061
N,2553,0.01,0.08,0.063
N,2554,0.015,0.08,0.061
N,2555,0.015,0.08,0.063
N,2556,0.02,0.08,0.061
N,2557,0.02,0.08,0.063
N,2558,0.035,0.08,0.061
N,2559,0.035,0.08,0.063
N,2560,0.05,0.08,0.061
N,2561,0.05,0.08,0.063
N,2562,0.065,0.08,0.061
N,2563,0.065,0.08,0.063
N,2564,0.08,0.08,0.061
N,2565,0.08,0.08,0.063
N,2566,0.085,0.08,0.061
N,2567,0.085,0.08,0.063
N,2568,0.09,0.08,0.061
N,2569,0.09,0.08,0.063
N,2570,0.093,0.08,0.061
N,2571,0.093,0.08,0.063
N,2572,0.095,0.08,0.061
N,2573,0.095,0.08,0.063
N,2574,0.1,0.08,0.063
N,2575,0.098,0.08,0.063
N,2576,0.002,0.085,0.063
N,2577,0,0.085,0.063
N,2578,0.007,0.085,0.061
N,2579,0.005,0.085,0.061
N,2580,0.007,0.085,0.063
N,2581,0.005,0.085,0.063
N,2582,0.01,0.085,0.063
N,2583,0.015,0.085,0.063
N,2584,0.02,0.085,0.061
N,2585,0.02,0.085,0.063
N,2586,0.035,0.085,0.061
N,2587,0.035,0.085,0.063
N,2588,0.05,0.085,0.061
N,2589,0.05,0.085,0.063
N,2590,0.065,0.085,0.061
N,2591,0.065,0.085,0.063
N,2592,0.08,0.085,0.061
N,2593,0.08,0.085,0.063
N,2594,0.085,0.085,0.063
N,2595,0.09,0.085,0.063
N,2596,0.093,0.085,0.061
N,2597,0.093,0.085,0.063
N,2598,0.095,0.085,0.061
N,2599,0.095,0.085,0.063
N,2600,0.1,0.085,0.063
N,2601,0.098,0.085,0.063
N,2602,0.002,0.09,0.063
N,2603,0,0.09,0.063
N,2604,0.007,0.09,0.061
N,2605,0.005,0.09,0.061
N,2606,0.007,0.09,0.063
N,2607,0.005,0.09,0.063
N,2608,0.01,0.09,0.063
N,2609,0.015,0.09,0.063
N,2610,0.02,0.09,0.061
N,2611,0.02,0.09,0.063
N,2612,0.035,0.09,0.061
N,2613,0.035,0.09,0.063
N,2614,0.05,0.09,0.061
N,2615,0.05,0.09,0.063
N,2616,0.065,0.09,0.061
N,2617,0.065,0.09,0.063
N,2618,0.08,0.09,0.061
N,2619,0.08,0.09,0.063
N,2620,0.085,0.09,0.063
N,2621,0.09,0.09,0.063
N,2622,0.093,0.09,0.061
N,2623,0.093,0.09,0.063
N,2624,0.095,0.09,0.061
N,2625,0.095,0.09,0.063
N,2626,0.1,0.09,0.063
N,2627,0.098,0.09,0.063
N,2628,0.002,0.093,0.063
N,2629,0,0.093,0.063
N,2630,0.007,0.093,0.063
N,2631,0.005,0.093,0.063
N,2632,0.01,0.093,0.061
N,2633,0.01,0.093,0.063
N,2634,0.015,0.093,0.061
N,2635,0.015,0.093,0.063
N,2636,0.02,0.093,0.061
N,2637,0.02,0.093,0.063
N,2638,0.035,0.093,0.061
N,2639,0.035,0.093,0.063
N,2640,0.05,0.093,0.061
N,2641,0.05,0.093,0.063
N,2642,0.065,0.093,0.061
N,2643,0.065,0.093,0.063
N,2644,0.08,0.093,0.061
N,2645,0.08,0.093,0.063
N,2646,0.085,0.093,0.061
N,2647,0.085,0.093,0.063
N,2648,0.09,0.093,0.061
N,2649,0.09,0.093,0.063
N,2650,0.093,0.093,0.063
N,2651,0.095,0.093,0.063
N,2652,0.1,0.093,0.063
N,2653,0.098,0.093,0.063
N,2654,0.002,0.095,0.063
N,2655,0,0.095,0.063
N,2656,0.005,0.095,0.063
N,2657,0.007,0.095,0.063
N,2658,0.01,0.095,0.061
N,2659,0.01,0.095,0.063
N,2660,0.015,0.095,0.061
N,2661,0.015,0.095,0.063
N,2662,0.02,0.095,0.061
N,2663,0.02,0.095,0.063
N,2664,0.035,0.095,0.061
N,2665,0.035,0.095,0.063
N,2666,0.05,0.095,0.061
N,2667,0.05,0.095,0.063
N,2668,0.065,0.095,0.061
N,2669,0.065,0.095,0.063
N,2670,0.08,0.095,0.061
N,2671,0.08,0.095,0.063
N,2672,0.085,0.095,0.061
N,2673,0.085,0.095,0.063
N,2674,0.09,0.095,0.061
N,2675,0.09,0.095,0.063
N,2676,0.093,0.095,0.063
N,2677,0.095,0.095,0.063
N,2678,0.098,0.095,0.063
N,2679,0.1,0.095,0.063
N,2680,0.002,0.098,0.063
N,2681,0,0.098,0.063
N,2682,0.005,0.098,0.063
N,2683,0.007,0.098,0.063
N,2684,0.095,0.098,0.063
N,2685,0.093,0.098,0.063
N,2686,0.098,0.098,0.063
N,2687,0.1,0.098,0.063
N,2688,0.002,0.1,0.063
N,2689,0,0.1,0.063
N,2690,0.005,0.1,0.063
N,2691,0.007,0.1,0.063
N,2692,0.01,0.098,0.063
N,2693,0.01,0.1,0.063
N,2694,0.015,0.098,0.063
N,2695,0.015,0.1,0.063
N,2696,0.02,0.098,0.063
N,2697,0.02,0.1,0.063
N,2698,0.035,0.098,0.063
N,2699,0.035,0.1,0.063
N,2700,0.05,0.098,0.063
N,2701,0.05,0.1,0.063
N,2702,0.065,0.098,0.063
N,2703,0.065,0.1,0.063
N,2704,0.08,0.098,0.063
N,2705,0.08,0.1,0.063
N,2706,0.085,0.098,0.063
N,2707,0.085,0.1,0.063
N,2708,0.09,0.098,0.063
N,2709,0.09,0.1,0.063
N,2710,0.093,0.1,0.063
N,2711,0.095,0.1,0.063
N,2712,0.098,0.1,0.063
N,2713,0.1,0.1,0.063
N,2714,0,0,0.078
N,2715,0.002,0,0.078
N,2716,0.002,0.002,0.078
N,2717,0,0.002,0.078
N,2718,0.005,0,0.078
N,2719,0.005,0.002,0.078
N,2720,0.007,0,0.078
N,2721,0.007,0.002,0.078
N,2722,0.01,0,0.078
N,2723,0.01,0.002,0.078
N,2724,0.015,0,0.078
N,2725,0.015,0.002,0.078
N,2726,0.02,0,0.078
N,2727,0.02,0.002,0.078
N,2728,0.035,0,0.078
N,2729,0.035,0.002,0.078
N,2730,0.05,0,0.078
N,2731,0.05,0.002,0.078
N,2732,0.065,0,0.078
N,2733,0.065,0.002,0.078
N,2734,0.08,0,0.078
N,2735,0.08,0.002,0.078
N,2736,0.085,0,0.078
N,2737,0.085,0.002,0.078
N,2738,0.09,0,0.078
N,2739,0.09,0.002,0.078
N,2740,0.093,0,0.078
N,2741,0.093,0.002,0.078
N,2742,0.095,0,0.078
N,2743,0.095,0.002,0.078
N,2744,0.098,0,0.078
N,2745,0.098,0.002,0.078
N,2746,0.1,0,0.078
N,2747,0.1,0.002,0.078
N,2748,0.002,0.005,0.078
N,2749,0,0.005,0.078
N,2750,0.005,0.005,0.078
N,2751,0.007,0.005,0.078
N,2752,0.095,0.005,0.078
N,2753,0.093,0.005,0.078
N,2754,0.098,0.005,0.078
N,2755,0.1,0.005,0.078
N,2756,0.002,0.007,0.078
N,2757,0,0.007,0.078
N,2758,0.005,0.007,0.078
N,2759,0.007,0.007,0.078
N,2760,0.095,0.007,0.078
N,2761,0.093,0.007,0.078
N,2762,0.098,0.007,0.078
N,2763,0.1,0.007,0.078
N,2764,0.002,0.01,0.078
N,2765,0,0.01,0.078
N,2766,0.1,0.01,0.078
N,2767,0.098,0.01,0.078
N,2768,0.002,0.015,0.078
N,2769,0,0.015,0.078
N,2770,0.01,0.01,0.078
N,2771,0.015,0.01,0.078
N,2772,0.015,0.015,0.078
N,2773,0.01,0.015,0.078
N,2774,0.085,0.01,0.078
N,2775,0.09,0.01,0.078
N,2776,0.09,0.015,0.078
N,2777,0.085,0.015,0.078
N,2778,0.1,0.015,0.078
N,2779,0.098,0.015,0.078
N,2780,0.002,0.02,0.078
N,2781,0,0.02,0.078
N,2782,0.1,0.02,0.078
N,2783,0.098,0.02,0.078
N,2784,0.002,0.035,0.078
N,2785,0,0.035,0.078
N,2786,0.1,0.035,0.078
N,2787,0.098,0.035,0.078
N,2788,0.002,0.05,0.078
N,2789,0,0.05,0.078
N,2790,0.1,0.05,0.078
N,2791,0.098,0.05,0.078
N,2792,0.002,0.065,0.078
N,2793,0,0.065,0.078
N,2794,0.1,0.065,0.078
N,2795,0.098,0.065,0.078
N,2796,0.002,0.08,0.078
N,2797,0,0.08,0.078
N,2798,0.1,0.08,0.078
N,2799,0.098,0.08,0.078
N,2800,0.002,0.085,0.078
N,2801,0,0.085,0.078
N,2802,0.1,0.085,0.078
N,2803,0.098,0.085,0.078
N,2804,0.002,0.09,0.078
N,2805,0,0.09,0.078
N,2806,0.01,0.085,0.078
N,2807,0.015,0.085,0.078
N,2808,0.015,0.09,0.078
N,2809,0.01,0.09,0.078
N,2810,0.085,0.085,0.078
N,2811,0.09,0.085,0.078
N,2812,0.09,0.09,0.078
N,2813,0.085,0.09,0.078
N,2814,0.1,0.09,0.078
N,2815,0.098,0.09,0.078
N,2816,0.002,0.093,0.078
N,2817,0,0.093,0.078
N,2818,0.1,0.093,0.078
N,2819,0.098,0.093,0.078
N,2820,0.002,0.095,0.078
N,2821,0,0.095,0.078
N,2822,0.005,0.093,0.078
N,2823,0.005,0.095,0.078
N,2824,0.007,0.093,0.078
N,2825,0.007,0.095,0.078
N,2826,0.093,0.093,0.078
N,2827,0.095,0.093,0.078
N,2828,0.095,0.095,0.078
N,2829,0.093,0.095,0.078
N,2830,0.098,0.095,0.078
N,2831,0.1,0.095,0.078
N,2832,0.002,0.098,0.078
N,2833,0,0.098,0.078
N,2834,0.005,0.098,0.078
N,2835,0.007,0.098,0.078
N,2836,0.095,0.098,0.078
N,2837,0.093,0.098,0.078
N,2838,0.098,0.098,0.078
N,2839,0.1,0.098,0.078
N,2840,0.002,0.1,0.078
N,2841,0,0.1,0.078
N,2842,0.005,0.1,0.078
N,2843,0.007,0.1,0.078
N,2844,0.01,0.098,0.078
N,2845,0.01,0.1,0.078
N,2846,0.015,0.098,0.078
N,2847,0.015,0.1,0.078
N,2848,0.02,0.098,0.078
N,2849,0.02,0.1,0.078
N,2850,0.035,0.098,0.078
N,2851,0.035,0.1,0.078
N,2852,0.05,0.098,0.078
N,2853,0.05,0.1,0.078
N,2854,0.065,0.098,0.078
N,2855,0.065,0.1,0.078
N,2856,0.08,0.098,0.078
N,2857,0.08,0.1,0.078
N,2858,0.085,0.098,0.078
N,2859,0.085,0.1,0.078
N,2860,0.09,0.098,0.078
N,2861,0.09,0.1,0.078
N,2862,0.093,0.1,0.078
N,2863,0.095,0.1,0.078
N,2864,0.098,0.1,0.078
N,2865,0.1,0.1,0.078
N,2866,0,0,0.08
N,2867,0.002,0,0.08
N,2868,0.002,0.002,0.08
N,2869,0,0.002,0.08
N,2870,0.005,0,0.08
N,2871,0.005,0.002,0.08
N,2872,0.007,0,0.08
N,2873,0.007,0.002,0.08
N,2874,0.01,0,0.08
N,2875,0.01,0.002,0.08
N,2876,0.015,0,0.08
N,2877,0.015,0.002,0.08
N,2878,0.02,0,0.08
N,2879,0.02,0.002,0.08
N,2880,0.035,0,0.08
N,2881,0.035,0.002,0.08
N,2882,0.05,0,0.08
N,2883,0.05,0.002,0.08
N,2884,0.065,0,0.08
N,2885,0.065,0.002,0.08
N,2886,0.08,0,0.08
N,2887,0.08,0.002,0.08
N,2888,0.085,0,0.08
N,2889,0.085,0.002,0.08
N,2890,0.09,0,0.08
N,2891,0.09,0.002,0.08
N,2892,0.093,0,0.08
N,2893,0.093,0.002,0.08
N,2894,0.095,0,0.08
N,2895,0.095,0.002,0.08
N,2896,0.098,0,0.08
N,2897,0.098,0.002,0.08
N,2898,0.1,0,0.08
N,2899,0.1,0.002,0.08
N,2900,0.002,0.005,0.08
N,2901,0,0.005,0.08
N,2902,0.005,0.005,0.08
N,2903,0.007,0.005,0.08
N,2904,0.095,0.005,0.08
N,2905,0.093,0.005,0.08
N,2906,0.098,0.005,0.08
N,2907,0.1,0.005,0.08
N,2908,0.002,0.007,0.08
N,2909,0,0.007,0.08
N,2910,0.005,0.007,0.08
N,2911,0.007,0.007,0.08
N,2912,0.01,0.005,0.078
N,2913,0.01,0.007,0.078
N,2914,0.01,0.005,0.08
N,2915,0.01,0.007,0.08
N,2916,0.015,0.005,0.078
N,2917,0.015,0.007,0.078
N,2918,0.015,0.005,0.08
N,2919,0.015,0.007,0.08
N,2920,0.02,0.005,0.078
N,2921,0.02,0.007,0.078
N,2922,0.02,0.005,0.08
N,2923,0.02,0.007,0.08
N,2924,0.035,0.005,0.078
N,2925,0.035,0.007,0.078
N,2926,0.035,0.005,0.08
N,2927,0.035,0.007,0.08
N,2928,0.05,0.005,0.078
N,2929,0.05,0.007,0.078
N,2930,0.05,0.005,0.08
N,2931,0.05,0.007,0.08
N,2932,0.065,0.005,0.078
N,2933,0.065,0.007,0.078
N,2934,0.065,0.005,0.08
N,2935,0.065,0.007,0.08
N,2936,0.08,0.005,0.078
N,2937,0.08,0.007,0.078
N,2938,0.08,0.005,0.08
N,2939,0.08,0.007,0.08
N,2940,0.085,0.005,0.078
N,2941,0.085,0.007,0.078
N,2942,0.085,0.005,0.08
N,2943,0.085,0.007,0.08
N,2944,0.09,0.005,0.078
N,2945,0.09,0.007,0.078
N,2946,0.09,0.005,0.08
N,2947,0.09,0.007,0.08
N,2948,0.093,0.007,0.08
N,2949,0.095,0.007,0.08
N,2950,0.098,0.007,0.08
N,2951,0.1,0.007,0.08
N,2952,0.002,0.01,0.08
N,2953,0,0.01,0.08
N,2954,0.007,0.01,0.078
N,2955,0.005,0.01,0.078
N,2956,0.007,0.01,0.08
N,2957,0.005,0.01,0.08
N,2958,0.01,0.01,0.08
N,2959,0.015,0.01,0.08
N,2960,0.02,0.01,0.078
N,2961,0.02,0.01,0.08
N,2962,0.035,0.01,0.078
N,2963,0.035,0.01,0.08
N,2964,0.05,0.01,0.078
N,2965,0.05,0.01,0.08
N,2966,0.065,0.01,0.078
N,2967,0.065,0.01,0.08
N,2968,0.08,0.01,0.078
N,2969,0.08,0.01,0.08
N,2970,0.085,0.01,0.08
N,2971,0.09,0.01,0.08
N,2972,0.093,0.01,0.078
N,2973,0.093,0.01,0.08
N,2974,0.095,0.01,0.078
N,2975,0.095,0.01,0.08
N,2976,0.1,0.01,0.08
N,2977,0.098,0.01,0.08
N,2978,0.002,0.015,0.08
N,2979,0,0.015,0.08
N,2980,0.007,0.015,0.078
N,2981,0.005,0.015,0.078
N,2982,0.007,0.015,0.08
N,2983,0.005,0.015,0.08
N,2984,0.01,0.015,0.08
N,2985,0.015,0.015,0.08
N,2986,0.02,0.015,0.078
N,2987,0.02,0.015,0.08
N,2988,0.035,0.015,0.078
N,2989,0.035,0.015,0.08
N,2990,0.05,0.015,0.078
N,2991,0.05,0.015,0.08
N,2992,0.065,0.015,0.078
N,2993,0.065,0.015,0.08
N,2994,0.08,0.015,0.078
N,2995,0.08,0.015,0.08
N,2996,0.085,0.015,0.08
N,2997,0.09,0.015,0.08
N,2998,0.093,0.015,0.078
N,2999,0.093,0.015,0.08
N,3000,0.095,0.015,0.078
N,3001,0.095,0.015,0.08
N,3002,0.1,0.015,0.08
N,3003,0.098,0.015,0.08
N,3004,0.002,0.02,0.08
N,3005,0,0.02,0.08
N,3006,0.007,0.02,0.078
N,3007,0.005,0.02,0.078
N,3008,0.007,0.02,0.08
N,3009,0.005,0.02,0.08
N,3010,0.01,0.02,0.078
N,3011,0.01,0.02,0.08
N,3012,0.015,0.02,0.078
N,3013,0.015,0.02,0.08
N,3014,0.02,0.02,0.078
N,3015,0.02,0.02,0.08
N,3016,0.035,0.02,0.078
N,3017,0.035,0.02,0.08
N,3018,0.05,0.02,0.078
N,3019,0.05,0.02,0.08
N,3020,0.065,0.02,0.078
N,3021,0.065,0.02,0.08
N,3022,0.08,0.02,0.078
N,3023,0.08,0.02,0.08
N,3024,0.085,0.02,0.078
N,3025,0.085,0.02,0.08
N,3026,0.09,0.02,0.078
N,3027,0.09,0.02,0.08
N,3028,0.093,0.02,0.078
N,3029,0.093,0.02,0.08
N,3030,0.095,0.02,0.078
N,3031,0.095,0.02,0.08
N,3032,0.1,0.02,0.08
N,3033,0.098,0.02,0.08
N,3034,0.002,0.035,0.08
N,3035,0,0.035,0.08
N,3036,0.007,0.035,0.078
N,3037,0.005,0.035,0.078
N,3038,0.007,0.035,0.08
N,3039,0.005,0.035,0.08
N,3040,0.01,0.035,0.078
N,3041,0.01,0.035,0.08
N,3042,0.015,0.035,0.078
N,3043,0.015,0.035,0.08
N,3044,0.02,0.035,0.078
N,3045,0.02,0.035,0.08
N,3046,0.035,0.035,0.078
N,3047,0.035,0.035,0.08
N,3048,0.05,0.035,0.078
N,3049,0.05,0.035,0.08
N,3050,0.065,0.035,0.078
N,3051,0.065,0.035,0.08
N,3052,0.08,0.035,0.078
N,3053,0.08,0.035,0.08
N,3054,0.085,0.035,0.078
N,3055,0.085,0.035,0.08
N,3056,0.09,0.035,0.078
N,3057,0.09,0.035,0.08
N,3058,0.093,0.035,0.078
N,3059,0.093,0.035,0.08
N,3060,0.095,0.035,0.078
N,3061,0.095,0.035,0.08
N,3062,0.1,0.035,0.08
N,3063,0.098,0.035,0.08
N,3064,0.002,0.05,0.08
N,3065,0,0.05,0.08
N,3066,0.007,0.05,0.078
N,3067,0.005,0.05,0.078
N,3068,0.007,0.05,0.08
N,3069,0.005,0.05,0.08
N,3070,0.01,0.05,0.078
N,3071,0.01,0.05,0.08
N,3072,0.015,0.05,0.078
N,3073,0.015,0.05,0.08
N,3074,0.02,0.05,0.078
N,3075,0.02,0.05,0.08
N,3076,0.035,0.05,0.078
N,3077,0.035,0.05,0.08
N,3078,0.05,0.05,0.078
N,3079,0.05,0.05,0.08
N,3080,0.065,0.05,0.078
N,3081,0.065,0.05,0.08
N,3082,0.08,0.05,0.078
N,3083,0.08,0.05,0.08
N,3084,0.085,0.05,0.078
N,3085,0.085,0.05,0.08
N,3086,0.09,0.05,0.078
N,3087,0.09,0.05,0.08
N,3088,0.093,0.05,0.078
N,3089,0.093,0.05,0.08
N,3090,0.095,0.05,0.078
N,3091,0.095,0.05,0.08
N,3092,0.1,0.05,0.08
N,3093,0.098,0.05,0.08
N,3094,0.002,0.065,0.08
N,3095,0,0.065,0.08
N,3096,0.007,0.065,0.078
N,3097,0.005,0.065,0.078
N,3098,0.007,0.065,0.08
N,3099,0.005,0.065,0.08
N,3100,0.01,0.065,0.078
N,3101,0.01,0.065,0.08
N,3102,0.015,0.065,0.078
N,3103,0.015,0.065,0.08
N,3104,0.02,0.065,0.078
N,3105,0.02,0.065,0.08
N,3106,0.035,0.065,0.078
N,3107,0.035,0.065,0.08
N,3108,0.05,0.065,0.078
N,3109,0.05,0.065,0.08
N,3110,0.065,0.065,0.078
N,3111,0.065,0.065,0.08
N,3112,0.08,0.065,0.078
N,3113,0.08,0.065,0.08
N,3114,0.085,0.065,0.078
N,3115,0.085,0.065,0.08
N,3116,0.09,0.065,0.078
N,3117,0.09,0.065,0.08
N,3118,0.093,0.065,0.078
N,3119,0.093,0.065,0.08
N,3120,0.095,0.065,0.078
N,3121,0.095,0.065,0.08
N,3122,0.1,0.065,0.08
N,3123,0.098,0.065,0.08
N,3124,0.002,0.08,0.08
N,3125,0,0.08,0.08
N,3126,0.007,0.08,0.078
N,3127,0.005,0.08,0.078
N,3128,0.007,0.08,0.08
N,3129,0.005,0.08,0.08
N,3130,0.01,0.08,0.078
N,3131,0.01,0.08,0.08
N,3132,0.015,0.08,0.078
N,3133,0.015,0.08,0.08
N,3134,0.02,0.08,0.078
N,3135,0.02,0.08,0.08
N,3136,0.035,0.08,0.078
N,3137,0.035,0.08,0.08
N,3138,0.05,0.08,0.078
N,3139,0.05,0.08,0.08
N,3140,0.065,0.08,0.078
N,3141,0.065,0.08,0.08
N,3142,0.08,0.08,0.078
N,3143,0.08,0.08,0.08
N,3144,0.085,0.08,0.078
N,3145,0.085,0.08,0.08
N,3146,0.09,0.08,0.078
N,3147,0.09,0.08,0.08
N,3148,0.093,0.08,0.078
N,3149,0.093,0.08,0.08
N,3150,0.095,0.08,0.078
N,3151,0.095,0.08,0.08
N,3152,0.1,0.08,0.08
N,3153,0.098,0.08,0.08
N,3154,0.002,0.085,0.08
N,3155,0,0.085,0.08
N,3156,0.007,0.085,0.078
N,3157,0.005,0.085,0.078
N,3158,0.007,0.085,0.08
N,3159,0.005,0.085,0.08
N,3160,0.01,0.085,0.08
N,3161,0.015,0.085,0.08
N,3162,0.02,0.085,0.078
N,3163,0.02,0.085,0.08
N,3164,0.035,0.085,0.078
N,3165,0.035,0.085,0.08
N,3166,0.05,0.085,0.078
N,3167,0.05,0.085,0.08
N,3168,0.065,0.085,0.078
N,3169,0.065,0.085,0.08
N,3170,0.08,0.085,0.078
N,3171,0.08,0.085,0.08
N,3172,0.085,0.085,0.08
N,3173,0.09,0.085,0.08
N,3174,0.093,0.085,0.078
N,3175,0.093,0.085,0.08
N,3176,0.095,0.085,0.078
N,3177,0.095,0.085,0.08
N,3178,0.1,0.085,0.08
N,3179,0.098,0.085,0.08
N,3180,0.002,0.09,0.08
N,3181,0,0.09,0.08
N,3182,0.007,0.09,0.078
N,3183,0.005,0.09,0.078
N,3184,0.007,0.09,0.08
N,3185,0.005,0.09,0.08
N,3186,0.01,0.09,0.08
N,3187,0.015,0.09,0.08
N,3188,0.02,0.09,0.078
N,3189,0.02,0.09,0.08
N,3190,0.035,0.09,0.078
N,3191,0.035,0.09,0.08
N,3192,0.05,0.09,0.078
N,3193,0.05,0.09,0.08
N,3194,0.065,0.09,0.078
N,3195,0.065,0.09,0.08
N,3196,0.08,0.09,0.078
N,3197,0.08,0.09,0.08
N,3198,0.085,0.09,0.08
N,3199,0.09,0.09,0.08
N,3200,0.093,0.09,0.078
N,3201,0.093,0.09,0.08
N,3202,0.095,0.09,0.078
N,3203,0.095,0.09,0.08
N,3204,0.1,0.09,0.08
N,3205,0.098,0.09,0.08
N,3206,0.002,0.093,0.08
N,3207,0,0.093,0.08
N,3208,0.007,0.093,0.08
N,3209,0.005,0.093,0.08
N,3210,0.01,0.093,0.078
N,3211,0.01,0.093,0.08
N,3212,0.015,0.093,0.078
N,3213,0.015,0.093,0.08
N,3214,0.02,0.093,0.078
N,3215,0.02,0.093,0.08
N,3216,0.035,0.093,0.078
N,3217,0.035,0.093,0.08
N,3218,0.05,0.093,0.078
N,3219,0.05,0.093,0.08
N,3220,0.065,0.093,0.078
N,3221,0.065,0.093,0.08
N,3222,0.08,0.093,0.078
N,3223,0.08,0.093,0.08
N,3224,0.085,0.093,0.078
N,3225,0.085,0.093,0.08
N,3226,0.09,0.093,0.078
N,3227,0.09,0.093,0.08
N,3228,0.093,0.093,0.08
N,3229,0.095,0.093,0.08
N,3230,0.1,0.093,0.08
N,3231,0.098,0.093,0.08
N,3232,0.002,0.095,0.08
N,3233,0,0.095,0.08
N,3234,0.005,0.095,0.08
N,3235,0.007,0.095,0.08
N,3236,0.01,0.095,0.078
N,3237,0.01,0.095,0.08
N,3238,0.015,0.095,0.078
N,3239,0.015,0.095,0.08
N,3240,0.02,0.095,0.078
N,3241,0.02,0.095,0.08
N,3242,0.035,0.095,0.078
N,3243,0.035,0.095,0.08
N,3244,0.05,0.095,0.078
N,3245,0.05,0.095,0.08
N,3246,0.065,0.095,0.078
N,3247,0.065,0.095,0.08
N,3248,0.08,0.095,0.078
N,3249,0.08,0.095,0.08
N,3250,0.085,0.095,0.078
N,3251,0.085,0.095,0.08
N,3252,0.09,0.095,0.078
N,3253,0.09,0.095,0.08
N,3254,0.093,0.095,0.08
N,3255,0.095,0.095,0.08
N,3256,0.098,0.095,0.08
N,3257,0.1,0.095,0.08
N,3258,0.002,0.098,0.08
N,3259,0,0.098,0.08
N,3260,0.005,0.098,0.08
N,3261,0.007,0.098,0.08
N,3262,0.095,0.098,0.08
N,3263,0.093,0.098,0.08
N,3264,0.098,0.098,0.08
N,3265,0.1,0.098,0.08
N,3266,0.002,0.1,0.08
N,3267,0,0.1,0.08
N,3268,0.005,0.1,0.08
N,3269,0.007,0.1,0.08
N,3270,0.01,0.098,0.08
N,3271,0.01,0.1,0.08
N,3272,0.015,0.098,0.08
N,3273,0.015,0.1,0.08
N,3274,0.02,0.098,0.08
N,3275,0.02,0.1,0.08
N,3276,0.035,0.098,0.08
N,3277,0.035,0.1,0.08
N,3278,0.05,0.098,0.08
N,3279,0.05,0.1,0.08
N,3280,0.065,0.098,0.08
N,3281,0.065,0.1,0.08
N,3282,0.08,0.098,0.08
N,3283,0.08,0.1,0.08
N,3284,0.085,0.098,0.08
N,3285,0.085,0.1,0.08
N,3286,0.09,0.098,0.08
N,3287,0.09,0.1,0.08
N,3288,0.093,0.1,0.08
N,3289,0.095,0.1,0.08
N,3290,0.098,0.1,0.08
N,3291,0.1,0.1,0.08
N,3292,0,0,0.093
N,3293,0.002,0,0.093
N,3294,0.002,0.002,0.093
N,3295,0,0.002,0.093
N,3296,0.005,0,0.093
N,3297,0.005,0.002,0.093
N,3298,0.007,0,0.093
N,3299,0.007,0.002,0.093
N,3300,0.01,0,0.093
N,3301,0.01,0.002,0.093
N,3302,0.015,0,0.093
N,3303,0.015,0.002,0.093
N,3304,0.02,0,0.093
N,3305,0.02,0.002,0.093
N,3306,0.035,0,0.093
N,3307,0.035,0.002,0.093
N,3308,0.05,0,0.093
N,3309,0.05,0.002,0.093
N,3310,0.065,0,0.093
N,3311,0.065,0.002,0.093
N,3312,0.08,0,0.093
N,3313,0.08,0.002,0.093
N,3314,0.085,0,0.093
N,3315,0.085,0.002,0.093
N,3316,0.09,0,0.093
N,3317,0.09,0.002,0.093
N,3318,0.093,0,0.093
N,3319,0.093,0.002,0.093
N,3320,0.095,0,0.093
N,3321,0.095,0.002,0.093
N,3322,0.098,0,0.093
N,3323,0.098,0.002,0.093
N,3324,0.1,0,0.093
N,3325,0.1,0.002,0.093
N,3326,0.002,0.005,0.093
N,3327,0,0.005,0.093
N,3328,0.005,0.005,0.093
N,3329,0.007,0.005,0.093
N,3330,0.095,0.005,0.093
N,3331,0.093,0.005,0.093
N,3332,0.098,0.005,0.093
N,3333,0.1,0.005,0.093
N,3334,0.002,0.007,0.093
N,3335,0,0.007,0.093
N,3336,0.005,0.007,0.093
N,3337,0.007,0.007,0.093
N,3338,0.095,0.007,0.093
N,3339,0.093,0.007,0.093
N,3340,0.098,0.007,0.093
N,3341,0.1,0.007,0.093
N,3342,0.002,0.01,0.093
N,3343,0,0.01,0.093
N,3344,0.1,0.01,0.093
N,3345,0.098,0.01,0.093
N,3346,0.002,0.015,0.093
N,3347,0,0.015,0.093
N,3348,0.01,0.01,0.093
N,3349,0.015,0.01,0.093
N,3350,0.015,0.015,0.093
N,3351,0.01,0.015,0.093
N,3352,0.085,0.01,0.093
N,3353,0.09,0.01,0.093
N,3354,0.09,0.015,0.093
N,3355,0.085,0.015,0.093
N,3356,0.1,0.015,0.093
N,3357,0.098,0.015,0.093
N,3358,0.002,0.02,0.093
N,3359,0,0.02,0.093
N,3360,0.1,0.02,0.093
N,3361,0.098,0.02,0.093
N,3362,0.002,0.035,0.093
N,3363,0,0.035,0.093
N,3364,0.1,0.035,0.093
N,3365,0.098,0.035,0.093
N,3366,0.002,0.05,0.093
N,3367,0,0.05,0.093
N,3368,0.1,0.05,0.093
N,3369,0.098,0.05,0.093
N,3370,0.002,0.065,0.093
N,3371,0,0.065,0.093
N,3372,0.1,0.065,0.093
N,3373,0.098,0.065,0.093
N,3374,0.002,0.08,0.093
N,3375,0,0.08,0.093
N,3376,0.1,0.08,0.093
N,3377,0.098,0.08,0.093
N,3378,0.002,0.085,0.093
N,3379,0,0.085,0.093
N,3380,0.1,0.085,0.093
N,3381,0.098,0.085,0.093
N,3382,0.002,0.09,0.093
N,3383,0,0.09,0.093
N,3384,0.01,0.085,0.093
N,3385,0.015,0.085,0.093
N,3386,0.015,0.09,0.093
N,3387,0.01,0.09,0.093
N,3388,0.085,0.085,0.093
N,3389,0.09,0.085,0.093
N,3390,0.09,0.09,0.093
N,3391,0.085,0.09,0.093
N,3392,0.1,0.09,0.093
N,3393,0.098,0.09,0.093
N,3394,0.002,0.093,0.093
N,3395,0,0.093,0.093
N,3396,0.1,0.093,0.093
N,3397,0.098,0.093,0.093
N,3398,0.002,0.095,0.093
N,3399,0,0.095,0.093
N,3400,0.005,0.093,0.093
N,3401,0.005,0.095,0.093
N,3402,0.007,0.093,0.093
N,3403,0.007,0.095,0.093
N,3404,0.093,0.093,0.093
N,3405,0.095,0.093,0.093
N,3406,0.095,0.095,0.093
N,3407,0.093,0.095,0.093
N,3408,0.098,0.095,0.093
N,3409,0.1,0.095,0.093
N,3410,0.002,0.098,0.093
N,3411,0,0.098,0.093
N,3412,0.005,0.098,0.093
N,3413,0.007,0.098,0.093
N,3414,0.095,0.098,0.093
N,3415,0.093,0.098,0.093
N,3416,0.098,0.098,0.093
N,3417,0.1,0.098,0.093
N,3418,0.002,0.1,0.093
N,3419,0,0.1,0.093
N,3420,0.005,0.1,0.093
N,3421,0.007,0.1,0.093
N,3422,0.01,0.098,0.093
N,3423,0.01,0.1,0.093
N,3424,0.015,0.098,0.093
N,3425,0.015,0.1,0.093
N,3426,0.02,0.098,0.093
N,3427,0.02,0.1,0.093
N,3428,0.035,0.098,0.093
N,3429,0.035,0.1,0.093
N,3430,0.05,0.098,0.093
N,3431,0.05,0.1,0.093
N,3432,0.065,0.098,0.093
N,3433,0.065,0.1,0.093
N,3434,0.08,0.098,0.093
N,3435,0.08,0.1,0.093
N,3436,0.085,0.098,0.093
N,3437,0.085,0.1,0.093
N,3438,0.09,0.098,0.093
N,3439,0.09,0.1,0.093
N,3440,0.093,0.1,0.093
N,3441,0.095,0.1,0.093
N,3442,0.098,0.1,0.093
N,3443,0.1,0.1,0.093
N,3444,0,0,0.098
N,3445,0.002,0,0.098
N,3446,0.002,0.002,0.098
N,3447,0,0.002,0.098
N,3448,0.005,0,0.098
N,3449,0.005,0.002,0.098
N,3450,0.007,0,0.098
N,3451,0.007,0.002,0.098
N,3452,0.01,0,0.098
N,3453,0.01,0.002,0.098
N,3454,0.015,0,0.098
N,3455,0.015,0.002,0.098
N,3456,0.02,0,0.098
N,3457,0.02,0.002,0.098
N,3458,0.035,0,0.098
N,3459,0.035,0.002,0.098
N,3460,0.05,0,0.098
N,3461,0.05,0.002,0.098
N,3462,0.065,0,0.098
N,3463,0.065,0.002,0.098
N,3464,0.08,0,0.098
N,3465,0.08,0.002,0.098
N,3466,0.085,0,0.098
N,3467,0.085,0.002,0.098
N,3468,0.09,0,0.098
N,3469,0.09,0.002,0.098
N,3470,0.093,0,0.098
N,3471,0.093,0.002,0.098
N,3472,0.095,0,0.098
N,3473,0.095,0.002,0.098
N,3474,0.098,0,0.098
N,3475,0.098,0.002,0.098
N,3476,0.1,0,0.098
N,3477,0.1,0.002,0.098
N,3478,0.002,0.005,0.098
N,3479,0,0.005,0.098
N,3480,0.005,0.005,0.098
N,3481,0.007,0.005,0.098
N,3482,0.01,0.005,0.093
N,3483,0.01,0.005,0.098
N,3484,0.015,0.005,0.093
N,3485,0.015,0.005,0.098
N,3486,0.02,0.005,0.093
N,3487,0.02,0.005,0.098
N,3488,0.035,0.005,0.093
N,3489,0.035,0.005,0.098
N,3490,0.05,0.005,0.093
N,3491,0.05,0.005,0.098
N,3492,0.065,0.005,0.093
N,3493,0.065,0.005,0.098
N,3494,0.08,0.005,0.093
N,3495,0.08,0.005,0.098
N,3496,0.085,0.005,0.093
N,3497,0.085,0.005,0.098
N,3498,0.09,0.005,0.093
N,3499,0.09,0.005,0.098
N,3500,0.093,0.005,0.098
N,3501,0.095,0.005,0.098
N,3502,0.098,0.005,0.098
N,3503,0.1,0.005,0.098
N,3504,0.002,0.007,0.098
N,3505,0,0.007,0.098
N,3506,0.005,0.007,0.098
N,3507,0.007,0.007,0.098
N,3508,0.01,0.007,0.093
N,3509,0.01,0.007,0.098
N,3510,0.015,0.007,0.093
N,3511,0.015,0.007,0.098
N,3512,0.02,0.007,0.093
N,3513,0.02,0.007,0.098
N,3514,0.035,0.007,0.093
N,3515,0.035,0.007,0.098
N,3516,0.05,0.007,0.093
N,3517,0.05,0.007,0.098
N,3518,0.065,0.007,0.093
N,3519,0.065,0.007,0.098
N,3520,0.08,0.007,0.093
N,3521,0.08,0.007,0.098
N,3522,0.085,0.007,0.093
N,3523,0.085,0.007,0.098
N,3524,0.09,0.007,0.093
N,3525,0.09,0.007,0.098
N,3526,0.093,0.007,0.098
N,3527,0.095,0.007,0.098
N,3528,0.098,0.007,0.098
N,3529,0.1,0.007,0.098
N,3530,0.002,0.01,0.098
N,3531,0,0.01,0.098
N,3532,0.005,0.01,0.093
N,3533,0.005,0.01,0.098
N,3534,0.007,0.01,0.093
N,3535,0.007,0.01,0.098
N,3536,0.095,0.01,0.093
N,3537,0.093,0.01,0.093
N,3538,0.095,0.01,0.098
N,3539,0.093,0.01,0.098
N,3540,0.098,0.01,0.098
N,3541,0.1,0.01,0.098
N,3542,0.002,0.015,0.098
N,3543,0,0.015,0.098
N,3544,0.005,0.015,0.093
N,3545,0.005,0.015,0.098
N,3546,0.007,0.015,0.093
N,3547,0.007,0.015,0.098
N,3548,0.01,0.01,0.098
N,3549,0.015,0.01,0.098
N,3550,0.015,0.015,0.098
N,3551,0.01,0.015,0.098
N,3552,0.085,0.01,0.098
N,3553,0.09,0.01,0.098
N,3554,0.09,0.015,0.098
N,3555,0.085,0.015,0.098
N,3556,0.095,0.015,0.093
N,3557,0.093,0.015,0.093
N,3558,0.095,0.015,0.098
N,3559,0.093,0.015,0.098
N,3560,0.098,0.015,0.098
N,3561,0.1,0.015,0.098
N,3562,0.002,0.02,0.098
N,3563,0,0.02,0.098
N,3564,0.005,0.02,0.093
N,3565,0.005,0.02,0.098
N,3566,0.007,0.02,0.093
N,3567,0.007,0.02,0.098
N,3568,0.095,0.02,0.093
N,3569,0.093,0.02,0.093
N,3570,0.095,0.02,0.098
N,3571,0.093,0.02,0.098
N,3572,0.098,0.02,0.098
N,3573,0.1,0.02,0.098
N,3574,0.002,0.035,0.098
N,3575,0,0.035,0.098
N,3576,0.005,0.035,0.093
N,3577,0.005,0.035,0.098
N,3578,0.007,0.035,0.093
N,3579,0.007,0.035,0.098
N,3580,0.095,0.035,0.093
N,3581,0.093,0.035,0.093
N,3582,0.095,0.035,0.098
N,3583,0.093,0.035,0.098
N,3584,0.098,0.035,0.098
N,3585,0.1,0.035,0.098
N,3586,0.002,0.05,0.098
N,3587,0,0.05,0.098
N,3588,0.005,0.05,0.093
N,3589,0.005,0.05,0.098
N,3590,0.007,0.05,0.093
N,3591,0.007,0.05,0.098
N,3592,0.095,0.05,0.093
N,3593,0.093,0.05,0.093
N,3594,0.095,0.05,0.098
N,3595,0.093,0.05,0.098
N,3596,0.098,0.05,0.098
N,3597,0.1,0.05,0.098
N,3598,0.002,0.065,0.098
N,3599,0,0.065,0.098
N,3600,0.005,0.065,0.093
N,3601,0.005,0.065,0.098
N,3602,0.007,0.065,0.093
N,3603,0.007,0.065,0.098
N,3604,0.095,0.065,0.093
N,3605,0.093,0.065,0.093
N,3606,0.095,0.065,0.098
N,3607,0.093,0.065,0.098
N,3608,0.098,0.065,0.098
N,3609,0.1,0.065,0.098
N,3610,0.002,0.08,0.098
N,3611,0,0.08,0.098
N,3612,0.005,0.08,0.093
N,3613,0.005,0.08,0.098
N,3614,0.007,0.08,0.093
N,3615,0.007,0.08,0.098
N,3616,0.095,0.08,0.093
N,3617,0.093,0.08,0.093
N,3618,0.095,0.08,0.098
N,3619,0.093,0.08,0.098
N,3620,0.098,0.08,0.098
N,3621,0.1,0.08,0.098
N,3622,0.002,0.085,0.098
N,3623,0,0.085,0.098
N,3624,0.005,0.085,0.093
N,3625,0.005,0.085,0.098
N,3626,0.007,0.085,0.093
N,3627,0.007,0.085,0.098
N,3628,0.095,0.085,0.093
N,3629,0.093,0.085,0.093
N,3630,0.095,0.085,0.098
N,3631,0.093,0.085,0.098
N,3632,0.098,0.085,0.098
N,3633,0.1,0.085,0.098
N,3634,0.002,0.09,0.098
N,3635,0,0.09,0.098
N,3636,0.005,0.09,0.093
N,3637,0.005,0.09,0.098
N,3638,0.007,0.09,0.093
N,3639,0.007,0.09,0.098
N,3640,0.01,0.085,0.098
N,3641,0.015,0.085,0.098
N,3642,0.015,0.09,0.098
N,3643,0.01,0.09,0.098
N,3644,0.085,0.085,0.098
N,3645,0.09,0.085,0.098
N,3646,0.09,0.09,0.098
N,3647,0.085,0.09,0.098
N,3648,0.095,0.09,0.093
N,3649,0.093,0.09,0.093
N,3650,0.095,0.09,0.098
N,3651,0.093,0.09,0.098
N,3652,0.098,0.09,0.098
N,3653,0.1,0.09,0.098
N,3654,0.002,0.093,0.098
N,3655,0,0.093,0.098
N,3656,0.005,0.093,0.098
N,3657,0.007,0.093,0.098
N,3658,0.095,0.093,0.098
N,3659,0.093,0.093,0.098
N,3660,0.098,0.093,0.098
N,3661,0.1,0.093,0.098
N,3662,0.002,0.095,0.098
N,3663,0,0.095,0.098
N,3664,0.005,0.095,0.098
N,3665,0.007,0.095,0.098
N,3666,0.01,0.093,0.093
N,3667,0.01,0.095,0.093
N,3668,0.01,0.093,0.098
N,3669,0.01,0.095,0.098
N,3670,0.015,0.093,0.093
N,3671,0.015,0.095,0.093
N,3672,0.015,0.093,0.098
N,3673,0.015,0.095,0.098
N,3674,0.02,0.093,0.093
N,3675,0.02,0.095,0.093
N,3676,0.02,0.093,0.098
N,3677,0.02,0.095,0.098
N,3678,0.035,0.093,0.093
N,3679,0.035,0.095,0.093
N,3680,0.035,0.093,0.098
N,3681,0.035,0.095,0.098
N,3682,0.05,0.093,0.093
N,3683,0.05,0.095,0.093
N,3684,0.05,0.093,0.098
N,3685,0.05,0.095,0.098
N,3686,0.065,0.093,0.093
N,3687,0.065,0.095,0.093
N,3688,0.065,0.093,0.098
N,3689,0.065,0.095,0.098
N,3690,0.08,0.093,0.093
N,3691,0.08,0.095,0.093
N,3692,0.08,0.093,0.098
N,3693,0.08,0.095,0.098
N,3694,0.085,0.093,0.093
N,3695,0.085,0.095,0.093
N,3696,0.085,0.093,0.098
N,3697,0.085,0.095,0.098
N,3698,0.09,0.093,0.093
N,3699,0.09,0.095,0.093
N,3700,0.09,0.093,0.098
N,3701,0.09,0.095,0.098
N,3702,0.093,0.095,0.098
N,3703,0.095,0.095,0.098
N,3704,0.098,0.095,0.098
N,3705,0.1,0.095,0.098
N,3706,0.002,0.098,0.098
N,3707,0,0.098,0.098
N,3708,0.005,0.098,0.098
N,3709,0.007,0.098,0.098
N,3710,0.01,0.098,0.098
N,3711,0.015,0.098,0.098
N,3712,0.02,0.098,0.098
N,3713,0.035,0.098,0.098
N,3714,0.05,0.098,0.098
N,3715,0.065,0.098,0.098
N,3716,0.08,0.098,0.098
N,3717,0.085,0.098,0.098
N,3718,0.09,0.098,0.098
N,3719,0.093,0.098,0.098
N,3720,0.095,0.098,0.098
N,3721,0.098,0.098,0.098
N,3722,0.1,0.098,0.098
N,3723,0.002,0.1,0.098
N,3724,0,0.1,0.098
N,3725,0.005,0.1,0.098
N,3726,0.007,0.1,0.098
N,3727,0.01,0.1,0.098
N,3728,0.015,0.1,0.098
N,3729,0.02,0.1,0.098
N,3730,0.035,0.1,0.098
N,3731,0.05,0.1,0.098
N,3732,0.065,0.1,0.098
N,3733,0.08,0.1,0.098
N,3734,0.085,0.1,0.098
N,3735,0.09,0.1,0.098
N,3736,0.093,0.1,0.098
N,3737,0.095,0.1,0.098
N,3738,0.098,0.1,0.098
N,3739,0.1,0.1,0.098
N,3740,0,0,0.1
N,3741,0.002,0,0.1
N,3742,0.002,0.002,0.1
N,3743,0,0.002,0.1
N,3744,0.005,0,0.1
N,3745,0.005,0.002,0.1
N,3746,0.007,0,0.1
N,3747,0.007,0.002,0.1
N,3748,0.01,0,0.1
N,3749,0.01,0.002,0.1
N,3750,0.015,0,0.1
N,3751,0.015,0.002,0.1
N,3752,0.02,0,0.1
N,3753,0.02,0.002,0.1
N,3754,0.035,0,0.1
N,3755,0.035,0.002,0.1
N,3756,0.05,0,0.1
N,3757,0.05,0.002,0.1
N,3758,0.065,0,0.1
N,3759,0.065,0.002,0.1
N,3760,0.08,0,0.1
N,3761,0.08,0.002,0.1
N,3762,0.085,0,0.1
N,3763,0.085,0.002,0.1
N,3764,0.09,0,0.1
N,3765,0.09,0.002,0.1
N,3766,0.093,0,0.1
N,3767,0.093,0.002,0.1
N,3768,0.095,0,0.1
N,3769,0.095,0.002,0.1
N,3770,0.098,0,0.1
N,3771,0.098,0.002,0.1
N,3772,0.1,0,0.1
N,3773,0.1,0.002,0.1
N,3774,0.002,0.005,0.1
N,3775,0,0.005,0.1
N,3776,0.005,0.005,0.1
N,3777,0.007,0.005,0.1
N,3778,0.01,0.005,0.1
N,3779,0.015,0.005,0.1
N,3780,0.02,0.005,0.1
N,3781,0.035,0.005,0.1
N,3782,0.05,0.005,0.1
N,3783,0.065,0.005,0.1
N,3784,0.08,0.005,0.1
N,3785,0.085,0.005,0.1
N,3786,0.09,0.005,0.1
N,3787,0.093,0.005,0.1
N,3788,0.095,0.005,0.1
N,3789,0.098,0.005,0.1
N,3790,0.1,0.005,0.1
N,3791,0.002,0.007,0.1
N,3792,0,0.007,0.1
N,3793,0.005,0.007,0.1
N,3794,0.007,0.007,0.1
N,3795,0.01,0.007,0.1
N,3796,0.015,0.007,0.1
N,3797,0.02,0.007,0.1
N,3798,0.035,0.007,0.1
N,3799,0.05,0.007,0.1
N,3800,0.065,0.007,0.1
N,3801,0.08,0.007,0.1
N,3802,0.085,0.007,0.1
N,3803,0.09,0.007,0.1
N,3804,0.093,0.007,0.1
N,3805,0.095,0.007,0.1
N,3806,0.098,0.007,0.1
N,3807,0.1,0.007,0.1
N,3808,0.002,0.01,0.1
N,3809,0,0.01,0.1
N,3810,0.005,0.01,0.1
N,3811,0.007,0.01,0.1
N,3812,0.01,0.01,0.1
N,3813,0.015,0.01,0.1
N,3814,0.02,0.01,0.098
N,3815,0.02,0.01,0.1
N,3816,0.035,0.01,0.098
N,3817,0.035,0.01,0.1
N,3818,0.05,0.01,0.098
N,3819,0.05,0.01,0.1
N,3820,0.065,0.01,0.098
N,3821,0.065,0.01,0.1
N,3822,0.08,0.01,0.098
N,3823,0.08,0.01,0.1
N,3824,0.085,0.01,0.1
N,3825,0.09,0.01,0.1
N,3826,0.093,0.01,0.1
N,3827,0.095,0.01,0.1
N,3828,0.098,0.01,0.1
N,3829,0.1,0.01,0.1
N,3830,0.002,0.015,0.1
N,3831,0,0.015,0.1
N,3832,0.005,0.015,0.1
N,3833,0.007,0.015,0.1
N,3834,0.01,0.015,0.1
N,3835,0.015,0.015,0.1
N,3836,0.02,0.015,0.098
N,3837,0.02,0.015,0.1
N,3838,0.035,0.015,0.098
N,3839,0.035,0.015,0.1
N,3840,0.05,0.015,0.098
N,3841,0.05,0.015,0.1
N,3842,0.065,0.015,0.098
N,3843,0.065,0.015,0.1
N,3844,0.08,0.015,0.098
N,3845,0.08,0.015,0.1
N,3846,0.085,0.015,0.1
N,3847,0.09,0.015,0.1
N,3848,0.093,0.015,0.1
N,3849,0.095,0.015,0.1
N,3850,0.098,0.015,0.1
N,3851,0.1,0.015,0.1
N,3852,0.002,0.02,0.1
N,3853,0,0.02,0.1
N,3854,0.005,0.02,0.1
N,3855,0.007,0.02,0.1
N,3856,0.01,0.02,0.098
N,3857,0.01,0.02,0.1
N,3858,0.015,0.02,0.098
N,3859,0.015,0.02,0.1
N,3860,0.02,0.02,0.098
N,3861,0.02,0.02,0.1
N,3862,0.035,0.02,0.098
N,3863,0.035,0.02,0.1
N,3864,0.05,0.02,0.098
N,3865,0.05,0.02,0.1
N,3866,0.065,0.02,0.098
N,3867,0.065,0.02,0.1
N,3868,0.08,0.02,0.098
N,3869,0.08,0.02,0.1
N,3870,0.085,0.02,0.098
N,3871,0.085,0.02,0.1
N,3872,0.09,0.02,0.098
N,3873,0.09,0.02,0.1
N,3874,0.093,0.02,0.1
N,3875,0.095,0.02,0.1
N,3876,0.098,0.02,0.1
N,3877,0.1,0.02,0.1
N,3878,0.002,0.035,0.1
N,3879,0,0.035,0.1
N,3880,0.005,0.035,0.1
N,3881,0.007,0.035,0.1
N,3882,0.01,0.035,0.098
N,3883,0.01,0.035,0.1
N,3884,0.015,0.035,0.098
N,3885,0.015,0.035,0.1
N,3886,0.02,0.035,0.098
N,3887,0.02,0.035,0.1
N,3888,0.035,0.035,0.098
N,3889,0.035,0.035,0.1
N,3890,0.05,0.035,0.098
N,3891,0.05,0.035,0.1
N,3892,0.065,0.035,0.098
N,3893,0.065,0.035,0.1
N,3894,0.08,0.035,0.098
N,3895,0.08,0.035,0.1
N,3896,0.085,0.035,0.098
N,3897,0.085,0.035,0.1
N,3898,0.09,0.035,0.098
N,3899,0.09,0.035,0.1
N,3900,0.093,0.035,0.1
N,3901,0.095,0.035,0.1
N,3902,0.098,0.035,0.1
N,3903,0.1,0.035,0.1
N,3904,0.002,0.05,0.1
N,3905,0,0.05,0.1
N,3906,0.005,0.05,0.1
N,3907,0.007,0.05,0.1
N,3908,0.01,0.05,0.098
N,3909,0.01,0.05,0.1
N,3910,0.015,0.05,0.098
N,3911,0.015,0.05,0.1
N,3912,0.02,0.05,0.098
N,3913,0.02,0.05,0.1
N,3914,0.035,0.05,0.098
N,3915,0.035,0.05,0.1
N,3916,0.05,0.05,0.098
N,3917,0.05,0.05,0.1
N,3918,0.065,0.05,0.098
N,3919,0.065,0.05,0.1
N,3920,0.08,0.05,0.098
N,3921,0.08,0.05,0.1
N,3922,0.085,0.05,0.098
N,3923,0.085,0.05,0.1
N,3924,0.09,0.05,0.098
N,3925,0.09,0.05,0.1
N,3926,0.093,0.05,0.1
N,3927,0.095,0.05,0.1
N,3928,0.098,0.05,0.1
N,3929,0.1,0.05,0.1
N,3930,0.002,0.065,0.1
N,3931,0,0.065,0.1
N,3932,0.005,0.065,0.1
N,3933,0.007,0.065,0.1
N,3934,0.01,0.065,0.098
N,3935,0.01,0.065,0.1
N,3936,0.015,0.065,0.098
N,3937,0.015,0.065,0.1
N,3938,0.02,0.065,0.098
N,3939,0.02,0.065,0.1
N,3940,0.035,0.065,0.098
N,3941,0.035,0.065,0.1
N,3942,0.05,0.065,0.098
N,3943,0.05,0.065,0.1
N,3944,0.065,0.065,0.098
N,3945,0.065,0.065,0.1
N,3946,0.08,0.065,0.098
N,3947,0.08,0.065,0.1
N,3948,0.085,0.065,0.098
N,3949,0.085,0.065,0.1
N,3950,0.09,0.065,0.098
N,3951,0.09,0.065,0.1
N,3952,0.093,0.065,0.1
N,3953,0.095,0.065,0.1
N,3954,0.098,0.065,0.1
N,3955,0.1,0.065,0.1
N,3956,0.002,0.08,0.1
N,3957,0,0.08,0.1
N,3958,0.005,0.08,0.1
N,3959,0.007,0.08,0.1
N,3960,0.01,0.08,0.098
N,3961,0.01,0.08,0.1
N,3962,0.015,0.08,0.098
N,3963,0.015,0.08,0.1
N,3964,0.02,0.08,0.098
N,3965,0.02,0.08,0.1
N,3966,0.035,0.08,0.098
N,3967,0.035,0.08,0.1
N,3968,0.05,0.08,0.098
N,3969,0.05,0.08,0.1
N,3970,0.065,0.08,0.098
N,3971,0.065,0.08,0.1
N,3972,0.08,0.08,0.098
N,3973,0.08,0.08,0.1
N,3974,0.085,0.08,0.098
N,3975,0.085,0.08,0.1
N,3976,0.09,0.08,0.098
N,3977,0.09,0.08,0.1
N,3978,0.093,0.08,0.1
N,3979,0.095,0.08,0.1
N,3980,0.098,0.08,0.1
N,3981,0.1,0.08,0.1
N,3982,0.002,0.085,0.1
N,3983,0,0.085,0.1
N,3984,0.005,0.085,0.1
N,3985,0.007,0.085,0.1
N,3986,0.01,0.085,0.1
N,3987,0.015,0.085,0.1
N,3988,0.02,0.085,0.098
N,3989,0.02,0.085,0.1
N,3990,0.035,0.085,0.098
N,3991,0.035,0.085,0.1
N,3992,0.05,0.085,0.098
N,3993,0.05,0.085,0.1
N,3994,0.065,0.085,0.098
N,3995,0.065,0.085,0.1
N,3996,0.08,0.085,0.098
N,3997,0.08,0.085,0.1
N,3998,0.085,0.085,0.1
N,3999,0.09,0.085,0.1
N,4000,0.093,0.085,0.1
N,4001,0.095,0.085,0.1
N,4002,0.098,0.085,0.1
N,4003,0.1,0.085,0.1
N,4004,0.002,0.09,0.1
N,4005,0,0.09,0.1
N,4006,0.005,0.09,0.1
N,4007,0.007,0.09,0.1
N,4008,0.01,0.09,0.1
N,4009,0.015,0.09,0.1
N,4010,0.02,0.09,0.098
N,4011,0.02,0.09,0.1
N,4012,0.035,0.09,0.098
N,4013,0.035,0.09,0.1
N,4014,0.05,0.09,0.098
N,4015,0.05,0.09,0.1
N,4016,0.065,0.09,0.098
N,4017,0.065,0.09,0.1
N,4018,0.08,0.09,0.098
N,4019,0.08,0.09,0.1
N,4020,0.085,0.09,0.1
N,4021,0.09,0.09,0.1
N,4022,0.093,0.09,0.1
N,4023,0.095,0.09,0.1
N,4024,0.098,0.09,0.1
N,4025,0.1,0.09,0.1
N,4026,0.002,0.093,0.1
N,4027,0,0.093,0.1
N,4028,0.005,0.093,0.1
N,4029,0.007,0.093,0.1
N,4030,0.01,0.093,0.1
N,4031,0.015,0.093,0.1
N,4032,0.02,0.093,0.1
N,4033,0.035,0.093,0.1
N,4034,0.05,0.093,0.1
N,4035,0.065,0.093,0.1
N,4036,0.08,0.093,0.1
N,4037,0.085,0.093,0.1
N,4038,0.09,0.093,0.1
N,4039,0.093,0.093,0.1
N,4040,0.095,0.093,0.1
N,4041,0.098,0.093,0.1
N,4042,0.1,0.093,0.1
N,4043,0.002,0.095,0.1
N,4044,0,0.095,0.1
N,4045,0.005,0.095,0.1
N,4046,0.007,0.095,0.1
N,4047,0.01,0.095,0.1
N,4048,0.015,0.095,0.1
N,4049,0.02,0.095,0.1
N,4050,0.035,0.095,0.1
N,4051,0.05,0.095,0.1
N,4052,0.065,0.095,0.1
N,4053,0.08,0.095,0.1
N,4054,0.085,0.095,0.1
N,4055,0.09,0.095,0.1
N,4056,0.093,0.095,0.1
N,4057,0.095,0.095,0.1
N,4058,0.098,0.095,0.1
N,4059,0.1,0.095,0.1
N,4060,0.002,0.098,0.1
N,4061,0,0.098,0.1
N,4062,0.005,0.098,0.1
N,4063,0.007,0.098,0.1
N,4064,0.01,0.098,0.1
N,4065,0.015,0.098,0.1
N,4066,0.02,0.098,0.1
N,4067,0.035,0.098,0.1
N,4068,0.05,0.098,0.1
N,4069,0.065,0.098,0.1
N,4070,0.08,0.098,0.1
N,4071,0.085,0.098,0.1
N,4072,0.09,0.098,0.1
N,4073,0.093,0.098,0.1
N,4074,0.095,0.098,0.1
N,4075,0.098,0.098,0.1
N,4076,0.1,0.098,0.1
N,4077,0.002,0.1,0.1
N,4078,0,0.1,0.1
N,4079,0.005,0.1,0.1
N,4080,0.007,0.1,0.1
N,4081,0.01,0.1,0.1
N,4082,0.015,0.1,0.1
N,4083,0.02,0.1,0.1
N,4084,0.035,0.1,0.1
N,4085,0.05,0.1,0.1
N,4086,0.065,0.1,0.1
N,4087,0.08,0.1,0.1
N,4088,0.085,0.1,0.1
N,4089,0.09,0.1,0.1
N,4090,0.093,0.1,0.1
N,4091,0.095,0.1,0.1
N,4092,0.098,0.1,0.1
N,4093,0.1,0.1,0.1
MAT,1
EN,1,1,2,3,4,5,6,7,8
EN,2,2,9,10,3,6,11,12,7
EN,3,9,13,14,10,11,15,16,12
EN,4,13,17,18,14,15,19,20,16
EN,5,17,21,22,18,19,23,24,20
EN,6,21,25,26,22,23,27,28,24
EN,7,25,29,30,26,27,31,32,28
EN,8,29,33,34,30,31,35,36,32
EN,9,33,37,38,34,35,39,40,36
EN,10,37,41,42,38,39,43,44,40
EN,11,41,45,46,42,43,47,48,44
EN,12,45,49,50,46,47,51,52,48
EN,13,49,53,54,50,51,55,56,52
EN,14,53,57,58,54,55,59,60,56
EN,15,57,61,62,58,59,63,64,60
EN,16,61,65,66,62,63,67,68,64
EN,17,4,3,69,70,8,7,71,72
EN,18,3,10,73,69,7,12,74,71
EN,19,10,14,75,73,12,16,76,74
EN,20,14,18,77,75,16,20,78,76
EN,21,18,22,79,77,20,24,80,78
EN,22,22,26,81,79,24,28,82,80
EN,23,26,30,83,81,28,32,84,82
EN,24,30,34,85,83,32,36,86,84
EN,25,34,38,87,85,36,40,88,86
EN,26,38,42,89,87,40,44,90,88
EN,27,42,46,91,89,44,48,92,90
EN,28,46,50,93,91,48,52,94,92
EN,29,50,54,95,93,52,56,96,94
EN,30,54,58,97,95,56,60,98,96
EN,31,58,62,99,97,60,64,100,98
EN,32,62,66,101,99,64,68,102,100
EN,33,70,69,103,104,72,71,105,106
EN,34,69,73,107,103,71,74,108,105
EN,35,73,75,109,107,74,76,110,108
EN,36,75,77,111,109,76,78,112,110
EN,37,77,79,113,111,78,80,114,112
EN,38,79,81,115,113,80,82,116,114
EN,39,81,83,117,115,82,84,118,116
EN,40,83,85,119,117,84,86,120,118
EN,41,85,87,121,119,86,88,122,120
EN,42,87,89,123,121,88,90,124,122
EN,43,89,91,125,123,90,92,126,124
EN,44,91,93,127,125,92,94,128,126
EN,45,93,95,129,127,94,96,130,128
EN,46,95,97,131,129,96,98,132,130
EN,47,97,99,133,131,98,100,134,132
EN,48,99,101,135,133,100,102,136,134
EN,49,104,103,137,138,106,105,139,140
EN,50,103,107,141,137,105,108,142,139
EN,51,107,109,143,141,108,110,144,142
EN,52,109,111,145,143,110,112,146,144
EN,53,111,113,147,145,112,114,148,146
EN,54,113,115,149,147,114,116,150,148
EN,55,115,117,151,149,116,118,152,150
EN,56,117,119,153,151,118,120,154,152
EN,57,119,121,155,153,120,122,156,154
EN,58,121,123,157,155,122,124,158,156
EN,59,123,125,159,157,124,126,160,158
EN,60,125,127,161,159,126,128,162,160
EN,61,127,129,163,161,128,130,164,162
EN,62,129,131,165,163,130,132,166,164
EN,63,131,133,167,165,132,134,168,166
EN,64,133,135,169,167,134,136,170,168
EN,65,138,137,171,172,140,139,173,174
EN,66,137,141,175,171,139,142,176,173
EN,67,141,143,177,175,142,144,178,176
EN,68,143,145,179,177,144,146,180,178
EN,69,145,147,181,179,146,148,182,180
EN,70,147,149,183,181,148,150,184,182
EN,71,149,151,185,183,150,152,186,184
EN,72,151,153,187,185,152,154,188,186
EN,73,153,155,189,187,154,156,190,188
EN,74,155,157,191,189,156,158,192,190
EN,75,157,159,193,191,158,160,194,192
EN,76,159,161,195,193,160,162,196,194
EN,77,161,163,197,195,162,164,198,196
EN,78,163,165,199,197,164,166,200,198
EN,79,165,167,201,199,166,168,202,200
EN,80,167,169,203,201,168,170,204,202
EN,81,172,171,205,206,174,173,207,208
EN,82,171,175,209,205,173,176,210,207
EN,83,175,177,211,209,176,178,212,210
EN,84,177,179,213,211,178,180,214,212
EN,85,179,181,215,213,180,182,216,214
EN,86,181,183,217,215,182,184,218,216
EN,87,183,185,219,217,184,186,220,218
EN,88,185,187,221,219,186,188,222,220
EN,89,187,189,223,221,188,190,224,222
EN,90,189,191,225,223,190,192,226,224
EN,91,191,193,227,225,192,194,228,226
EN,92,193,195,229,227,194,196,230,228
EN,93,195,197,231,229,196,198,232,230
EN,94,197,199,233,231,198,200,234,232
EN,95,199,201,235,233,200,202,236,234
EN,96,201,203,237,235,202,204,238,236
EN,97,206,205,239,240,208,207,241,242
EN,98,205,209,243,239,207,210,244,241
EN,99,209,211,245,243,210,212,246,244
EN,100,211,213,247,245,212,214,248,246
EN,101,213,215,249,247,214,216,250,248
EN,102,215,217,251,249,216,218,252,250
EN,103,217,219,253,251,218,220,254,252
EN,104,219,221,255,253,220,222,256,254
EN,105,221,223,257,255,222,224,258,256
EN,106,223,225,259,257,224,226,260,258
EN,107,225,227,261,259,226,228,262,260
EN,108,227,229,263,261,228,230,264,262
EN,109,229,231,265,263,230,232,266,264
EN,110,231,233,267,265,232,234,268,266
EN,111,233,235,269,267,234,236,270,268
EN,112,235,237,271,269,236,238,272,270
EN,113,240,239,273,274,242,241,275,276
EN,114,239,243,277,273,241,244,278,275
EN,115,243,245,279,277,244,246,280,278
EN,116,245,247,281,279,246,248,282,280
EN,117,247,249,283,281,248,250,284,282
EN,118,249,251,285,283,250,252,286,284
EN,119,251,253,287,285,252,254,288,286
EN,120,253,255,289,287,254,256,290,288
EN,121,255,257,291,289,256,258,292,290
EN,122,257,259,293,291,258,260,294,292
EN,123,259,261,295,293,260,262,296,294
EN,124,261,263,297,295,262,264,298,296
EN,125,263,265,299,297,264,266,300,298
EN,126,265,267,301,299,266,268,302,300
EN,127,267,269,303,301,268,270,304,302
EN,128,269,271,305,303,270,272,306,304
EN,129,274,273,307,308,276,275,309,310
EN,130,273,277,311,307,275,278,312,309
EN,131,277,279,313,311,278,280,314,312
EN,132,279,281,315,313,280,282,316,314
EN,133,281,283,317,315,282,284,318,316
EN,134,283,285,319,317,284,286,320,318
EN,135,285,287,321,319,286,288,322,320
EN,136,287,289,323,321,288,290,324,322
EN,137,289,291,325,323,290,292,326,324
EN,138,291,293,327,325,292,294,328,326
EN,139,293,295,329,327,294,296,330,328
EN,140,295,297,331,329,296,298,332,330
EN,141,297,299,333,331,298,300,334,332
EN,142,299,301,335,333,300,302,336,334
EN,143,301,303,337,335,302,304,338,336
EN,144,303,305,339,337,304,306,340,338
EN,145,308,307,341,342,310,309,343,344
EN,146,307,311,345,341,309,312,346,343
EN,147,311,313,347,345,312,314,348,346
EN,148,313,315,349,347,314,316,350,348
EN,149,315,317,351,349,316,318,352,350
EN,150,317,319,353,351,318,320,354,352
EN,151,319,321,355,353,320,322,356,354
EN,152,321,323,357,355,322,324,358,356
EN,153,323,325,359,357,324,326,360,358
EN,154,325,327,361,359,326,328,362,360
EN,155,327,329,363,361,328,330,364,362
EN,156,329,331,365,363,330,332,366,364
EN,157,331,333,367,365,332,334,368,366
EN,158,333,335,369,367,334,336,370,368
EN,159,335,337,371,369,336,338,372,370
EN,160,337,339,373,371,338,340,374,372
EN,161,342,341,375,376,344,343,377,378
EN,162,341,345,379,375,343,346,380,377
EN,163,345,347,381,379,346,348,382,380
EN,164,347,349,383,381,348,350,384,382
EN,165,349,351,385,383,350,352,386,384
EN,166,351,353,387,385,352,354,388,386
EN,167,353,355,389,387,354,356,390,388
EN,168,355,357,391,389,356,358,392,390
EN,169,357,359,393,391,358,360,394,392
EN,170,359,361,395,393,360,362,396,394
EN,171,361,363,397,395,362,364,398,396
EN,172,363,365,399,397,364,366,400,398
EN,173,365,367,401,399,366,368,402,400
EN,174,367,369,403,401,368,370,404,402
EN,175,369,371,405,403,370,372,406,404
EN,176,371,373,407,405,372,374,408,406
EN,177,376,375,409,410,378,377,411,412
EN,178,375,379,413,409,377,380,414,411
EN,179,379,381,415,413,380,382,416,414
EN,180,381,383,417,415,382,384,418,416
EN,181,383,385,419,417,384,386,420,418
EN,182,385,387,421,419,386,388,422,420
EN,183,387,389,423,421,388,390,424,422
EN,184,389,391,425,423,390,392,426,424
EN,185,391,393,427,425,392,394,428,426
EN,186,393,395,429,427,394,396,430,428
EN,187,395,397,431,429,396,398,432,430
EN,188,397,399,433,431,398,400,434,432
EN,189,399,401,435,433,400,402,436,434
EN,190,401,403,437,435,402,404,438,436
EN,191,403,405,439,437,404,406,440,438
EN,192,405,407,441,439,406,408,442,440
EN,193,410,409,443,444,412,411,445,446
EN,194,409,413,447,443,411,414,448,445
EN,195,413,415,449,447,414,416,450,448
EN,196,415,417,451,449,416,418,452,450
EN,197,417,419,453,451,418,420,454,452
EN,198,419,421,455,453,420,422,456,454
EN,199,421,423,457,455,422,424,458,456
EN,200,423,425,459,457,424,426,460,458
EN,201,425,427,461,459,426,428,462,460
EN,202,427,429,463,461,428,430,464,462
EN,203,429,431,465,463,430,432,466,464
EN,204,431,433,467,465,432,434,468,466
EN,205,433,435,469,467,434,436,470,468
EN,206,435,437,471,469,436,438,472,470
EN,207,437,439,473,471,438,440,474,472
EN,208,439,441,475,473,440,442,476,474
EN,209,444,443,477,478,446,445,479,480
EN,210,443,447,481,477,445,448,482,479
EN,211,447,449,483,481,448,450,484,482
EN,212,449,451,485,483,450,452,486,484
EN,213,451,453,487,485,452,454,488,486
EN,214,453,455,489,487,454,456,490,488
EN,215,455,457,491,489,456,458,492,490
EN,216,457,459,493,491,458,460,494,492
EN,217,459,461,495,493,460,462,496,494
EN,218,461,463,497,495,462,464,498,496
EN,219,463,465,499,497,464,466,500,498
EN,220,465,467,501,499,466,468,502,500
EN,221,467,469,503,501,468,470,504,502
EN,222,469,471,505,503,470,472,506,504
EN,223,471,473,507,505,472,474,508,506
EN,224,473,475,509,507,474,476,510,508
EN,225,478,477,511,512,480,479,513,514
EN,226,477,481,515,511,479,482,516,513
EN,227,481,483,517,515,482,484,518,516
EN,228,483,485,519,517,484,486,520,518
EN,229,485,487,521,519,486,488,522,520
EN,230,487,489,523,521,488,490,524,522
EN,231,489,491,525,523,490,492,526,524
EN,232,491,493,527,525,492,494,528,526
EN,233,493,495,529,527,494,496,530,528
EN,234,495,497,531,529,496,498,532,530
EN,235,497,499,533,531,498,500,534,532
EN,236,499,501,535,533,500,502,536,534
EN,237,501,503,537,535,502,504,538,536
EN,238,503,505,539,537,504,506,540,538
EN,239,505,507,541,539,506,508,542,540
EN,240,507,509,543,541,508,510,544,542
EN,241,512,511,545,546,514,513,547,548
EN,242,511,515,549,545,513,516,550,547
EN,243,515,517,551,549,516,518,552,550
EN,244,517,519,553,551,518,520,554,552
EN,245,519,521,555,553,520,522,556,554
EN,246,521,523,557,555,522,524,558,556
EN,247,523,525,559,557,524,526,560,558
EN,248,525,527,561,559,526,528,562,560
EN,249,527,529,563,561,528,530,564,562
EN,250,529,531,565,563,530,532,566,564
EN,251,531,533,567,565,532,534,568,566
EN,252,533,535,569,567,534,536,570,568
EN,253,535,537,571,569,536,538,572,570
EN,254,537,539,573,571,538,540,574,572
EN,255,539,541,575,573,540,542,576,574
EN,256,541,543,577,575,542,544,578,576
EN,257,5,6,7,8,579,580,581,582
EN,258,6,11,12,7,580,583,584,581
EN,259,11,15,16,12,583,585,586,584
EN,260,15,19,20,16,585,587,588,586
EN,261,19,23,24,20,587,589,590,588
EN,262,23,27,28,24,589,591,592,590
EN,263,27,31,32,28,591,593,594,592
EN,264,31,35,36,32,593,595,596,594
EN,265,35,39,40,36,595,597,598,596
EN,266,39,43,44,40,597,599,600,598
EN,267,43,47,48,44,599,601,602,600
EN,268,47,51,52,48,601,603,604,602
EN,269,51,55,56,52,603,605,606,604
EN,270,55,59,60,56,605,607,608,606
EN,271,59,63,64,60,607,609,610,608
EN,272,63,67,68,64,609,611,612,610
EN,273,8,7,71,72,582,581,613,614
MAT,2
EN,274,7,12,74,71,581,584,615,613
EN,275,12,16,76,74,584,586,616,615
EN,276,16,20,78,76,586,588,617,616
EN,277,20,24,80,78,588,590,618,617
EN,278,24,28,82,80,590,592,619,618
EN,279,28,32,84,82,592,594,620,619
EN,280,32,36,86,84,594,596,621,620
EN,281,36,40,88,86,596,598,622,621
EN,282,40,44,90,88,598,600,623,622
EN,283,44,48,92,90,600,602,624,623
EN,284,48,52,94,92,602,604,625,624
EN,285,52,56,96,94,604,606,626,625
EN,286,56,60,98,96,606,608,627,626
EN,287,60,64,100,98,608,610,628,627
MAT,1
EN,288,64,68,102,100,610,612,629,628
EN,289,72,71,105,106,614,613,630,631
MAT,2
EN,290,71,74,108,105,613,615,632,630
EN,291,74,76,110,108,615,616,633,632
EN,292,76,78,112,110,616,617,634,633
EN,293,78,80,114,112,617,618,635,634
EN,294,80,82,116,114,618,619,636,635
EN,295,82,84,118,116,619,620,637,636
EN,296,84,86,120,118,620,621,638,637
EN,297,86,88,122,120,621,622,639,638
EN,298,88,90,124,122,622,623,640,639
EN,299,90,92,126,124,623,624,641,640
EN,300,92,94,128,126,624,625,642,641
EN,301,94,96,130,128,625,626,643,642
EN,302,96,98,132,130,626,627,644,643
EN,303,98,100,134,132,627,628,645,644
MAT,1
EN,304,100,102,136,134,628,629,646,645
EN,305,106,105,139,140,631,630,647,648
MAT,2
EN,306,105,108,142,139,630,632,649,647
EN,307,108,110,144,142,632,633,650,649
EN,308,130,132,166,164,643,644,651,652
EN,309,132,134,168,166,644,645,653,651
MAT,1
EN,310,134,136,170,168,645,646,654,653
EN,311,140,139,173,174,648,647,655,656
MAT,2
EN,312,139,142,176,173,647,649,657,655
EN,313,142,144,178,176,649,650,658,657
EN,314,146,148,182,180,659,660,661,662
EN,315,160,162,196,194,663,664,665,666
EN,316,164,166,200,198,652,651,667,668
EN,317,166,168,202,200,651,653,669,667
MAT,1
EN,318,168,170,204,202,653,654,670,669
EN,319,174,173,207,208,656,655,671,672
MAT,2
EN,320,173,176,210,207,655,657,673,671
EN,321,176,178,212,210,657,658,674,673
EN,322,198,200,234,232,668,667,675,676
EN,323,200,202,236,234,667,669,677,675
MAT,1
EN,324,202,204,238,236,669,670,678,677
EN,325,208,207,241,242,672,671,679,680
MAT,2
EN,326,207,210,244,241,671,673,681,679
EN,327,210,212,246,244,673,674,682,681
EN,328,232,234,268,266,676,675,683,684
EN,329,234,236,270,268,675,677,685,683
MAT,1
EN,330,236,238,272,270,677,678,686,685
EN,331,242,241,275,276,680,679,687,688
MAT,2
EN,332,241,244,278,275,679,681,689,687
EN,333,244,246,280,278,681,682,690,689
EN,334,266,268,302,300,684,683,691,692
EN,335,268,270,304,302,683,685,693,691
MAT,1
EN,336,270,272,306,304,685,686,694,693
EN,337,276,275,309,310,688,687,695,696
MAT,2
EN,338,275,278,312,309,687,689,697,695
EN,339,278,280,314,312,689,690,698,697
EN,340,300,302,336,334,692,691,699,700
EN,341,302,304,338,336,691,693,701,699
MAT,1
EN,342,304,306,340,338,693,694,702,701
EN,343,310,309,343,344,696,695,703,704
MAT,2
EN,344,309,312,346,343,695,697,705,703
EN,345,312,314,348,346,697,698,706,705
EN,346,334,336,370,368,700,699,707,708
EN,347,336,338,372,370,699,701,709,707
MAT,1
EN,348,338,340,374,372,701,702,710,709
EN,349,344,343,377,378,704,703,711,712
MAT,2
EN,350,343,346,380,377,703,705,713,711
EN,351,346,348,382,380,705,706,714,713
EN,352,368,370,404,402,708,707,715,716
EN,353,370,372,406,404,707,709,717,715
MAT,1
EN,354,372,374,408,406,709,710,718,717
EN,355,378,377,411,412,712,711,719,720
MAT,2
EN,356,377,380,414,411,711,713,721,719
EN,357,380,382,416,414,713,714,722,721
EN,358,384,386,420,418,723,724,725,726
EN,359,398,400,434,432,727,728,729,730
EN,360,402,404,438,436,716,715,731,732
EN,361,404,406,440,438,715,717,733,731
MAT,1
EN,362,406,408,442,440,717,718,734,733
EN,363,412,411,445,446,720,719,735,736
MAT,2
EN,364,411,414,448,445,719,721,737,735
EN,365,414,416,450,448,721,722,738,737
EN,366,436,438,472,470,732,731,739,740
EN,367,438,440,474,472,731,733,741,739
MAT,1
EN,368,440,442,476,474,733,734,742,741
EN,369,446,445,479,480,736,735,743,744
MAT,2
EN,370,445,448,482,479,735,737,745,743
EN,371,448,450,484,482,737,738,746,745
EN,372,450,452,486,484,738,747,748,746
EN,373,452,454,488,486,747,749,750,748
EN,374,454,456,490,488,749,751,752,750
EN,375,456,458,492,490,751,753,754,752
EN,376,458,460,494,492,753,755,756,754
EN,377,460,462,496,494,755,757,758,756
EN,378,462,464,498,496,757,759,760,758
EN,379,464,466,500,498,759,761,762,760
EN,380,466,468,502,500,761,763,764,762
EN,381,468,470,504,502,763,740,765,764
EN,382,470,472,506,504,740,739,766,765
EN,383,472,474,508,506,739,741,767,766
MAT,1
EN,384,474,476,510,508,741,742,768,767
EN,385,480,479,513,514,744,743,769,770
MAT,2
EN,386,479,482,516,513,743,745,771,769
EN,387,482,484,518,516,745,746,772,771
EN,388,484,486,520,518,746,748,773,772
EN,389,486,488,522,520,748,750,774,773
EN,390,488,490,524,522,750,752,775,774
EN,391,490,492,526,524,752,754,776,775
EN,392,492,494,528,526,754,756,777,776
EN,393,494,496,530,528,756,758,778,777
EN,394,496,498,532,530,758,760,779,778
EN,395,498,500,534,532,760,762,780,779
EN,396,500,502,536,534,762,764,781,780
EN,397,502,504,538,536,764,765,782,781
EN,398,504,506,540,538,765,766,783,782
EN,399,506,508,542,540,766,767,784,783
MAT,1
EN,400,508,510,544,542,767,768,785,784
EN,401,514,513,547,548,770,769,786,787
EN,402,513,516,550,547,769,771,788,786
EN,403,516,518,552,550,771,772,789,788
EN,404,518,520,554,552,772,773,790,789
EN,405,520,522,556,554,773,774,791,790
EN,406,522,524,558,556,774,775,792,791
EN,407,524,526,560,558,775,776,793,792
EN,408,526,528,562,560,776,777,794,793
EN,409,528,530,564,562,777,778,795,794
EN,410,530,532,566,564,778,779,796,795
EN,411,532,534,568,566,779,780,797,796
EN,412,534,536,570,568,780,781,798,797
EN,413,536,538,572,570,781,782,799,798
EN,414,538,540,574,572,782,783,800,799
EN,415,540,542,576,574,783,784,801,800
EN,416,542,544,578,576,784,785,802,801
EN,417,579,580,581,582,803,804,805,806
EN,418,580,583,584,581,804,807,808,805
EN,419,583,585,586,584,807,809,810,808
EN,420,585,587,588,586,809,811,812,810
EN,421,587,589,590,588,811,813,814,812
EN,422,589,591,592,590,813,815,816,814
EN,423,591,593,594,592,815,817,818,816
EN,424,593,595,596,594,817,819,820,818
EN,425,595,597,598,596,819,821,822,820
EN,426,597,599,600,598,821,823,824,822
EN,427,599,601,602,600,823,825,826,824
EN,428,601,603,604,602,825,827,828,826
EN,429,603,605,606,604,827,829,830,828
EN,430,605,607,608,606,829,831,832,830
EN,431,607,609,610,608,831,833,834,832
EN,432,609,611,612,610,833,835,836,834
EN,433,582,581,613,614,806,805,837,838
MAT,2
EN,434,581,584,615,613,805,808,839,837
EN,435,584,586,616,615,808,810,840,839
EN,436,606,608,627,626,830,832,841,842
EN,437,608,610,628,627,832,834,843,841
MAT,1
EN,438,610,612,629,628,834,836,844,843
EN,439,614,613,630,631,838,837,845,846
MAT,2
EN,440,613,615,632,630,837,839,847,845
EN,441,615,616,633,632,839,840,848,847
EN,442,626,627,644,643,842,841,849,850
EN,443,627,628,645,644,841,843,851,849
MAT,1
EN,444,628,629,646,645,843,844,852,851
EN,445,631,630,647,648,846,845,853,854
EN,446,645,646,654,653,851,852,855,856
EN,447,648,647,655,656,854,853,857,858
MAT,2
EN,448,659,660,661,662,859,860,861,862
EN,449,663,664,665,666,863,864,865,866
MAT,1
EN,450,653,654,670,669,856,855,867,868
EN,451,656,655,671,672,858,857,869,870
EN,452,669,670,678,677,868,867,871,872
EN,453,672,671,679,680,870,869,873,874
EN,454,677,678,686,685,872,871,875,876
EN,455,680,679,687,688,874,873,877,878
EN,456,685,686,694,693,876,875,879,880
EN,457,688,687,695,696,878,877,881,882
EN,458,693,694,702,701,880,879,883,884
EN,459,696,695,703,704,882,881,885,886
EN,460,701,702,710,709,884,883,887,888
EN,461,704,703,711,712,886,885,889,890
EN,462,709,710,718,717,888,887,891,892
EN,463,712,711,719,720,890,889,893,894
MAT,2
EN,464,723,724,725,726,895,896,897,898
EN,465,727,728,729,730,899,900,901,902
MAT,1
EN,466,717,718,734,733,892,891,903,904
EN,467,720,719,735,736,894,893,905,906
EN,468,733,734,742,741,904,903,907,908
EN,469,736,735,743,744,906,905,909,910
MAT,2
EN,470,735,737,745,743,905,911,912,909
EN,471,737,738,746,745,911,913,914,912
EN,472,740,739,766,765,915,916,917,918
EN,473,739,741,767,766,916,908,919,917
MAT,1
EN,474,741,742,768,767,908,907,920,919
EN,475,744,743,769,770,910,909,921,922
MAT,2
EN,476,743,745,771,769,909,912,923,921
EN,477,745,746,772,771,912,914,924,923
EN,478,765,766,783,782,918,917,925,926
EN,479,766,767,784,783,917,919,927,925
MAT,1
EN,480,767,768,785,784,919,920,928,927
EN,481,770,769,786,787,922,921,929,930
EN,482,769,771,788,786,921,923,931,929
EN,483,771,772,789,788,923,924,932,931
EN,484,772,773,790,789,924,933,934,932
EN,485,773,774,791,790,933,935,936,934
EN,486,774,775,792,791,935,937,938,936
EN,487,775,776,793,792,937,939,940,938
EN,488,776,777,794,793,939,941,942,940
EN,489,777,778,795,794,941,943,944,942
EN,490,778,779,796,795,943,945,946,944
EN,491,779,780,797,796,945,947,948,946
EN,492,780,781,798,797,947,949,950,948
EN,493,781,782,799,798,949,926,951,950
EN,494,782,783,800,799,926,925,952,951
EN,495,783,784,801,800,925,927,953,952
EN,496,784,785,802,801,927,928,954,953
EN,497,803,804,805,806,955,956,957,958
EN,498,804,807,808,805,956,959,960,957
EN,499,807,809,810,808,959,961,962,960
EN,500,809,811,812,810,961,963,964,962
EN,501,811,813,814,812,963,965,966,964
EN,502,813,815,816,814,965,967,968,966
EN,503,815,817,818,816,967,969,970,968
EN,504,817,819,820,818,969,971,972,970
EN,505,819,821,822,820,971,973,974,972
EN,506,821,823,824,822,973,975,976,974
EN,507,823,825,826,824,975,977,978,976
EN,508,825,827,828,826,977,979,980,978
EN,509,827,829,830,828,979,981,982,980
EN,510,829,831,832,830,981,983,984,982
EN,511,831,833,834,832,983,985,986,984
EN,512,833,835,836,834,985,987,988,986
EN,513,806,805,837,838,958,957,989,990
MAT,2
EN,514,805,808,839,837,957,960,991,989
EN,515,808,810,840,839,960,962,992,991
EN,516,830,832,841,842,982,984,993,994
EN,517,832,834,843,841,984,986,995,993
MAT,1
EN,518,834,836,844,843,986,988,996,995
EN,519,838,837,845,846,990,989,997,998
MAT,2
EN,520,837,839,847,845,989,991,999,997
EN,521,839,840,848,847,991,992,1000,999
MAT,3
EN,522,840,1001,1002,848,992,1003,1004,1000
EN,523,1001,1005,1006,1002,1003,1007,1008,1004
EN,524,1005,1009,1010,1006,1007,1011,1012,1008
EN,525,1009,1013,1014,1010,1011,1015,1016,1012
EN,526,1013,1017,1018,1014,1015,1019,1020,1016
EN,527,1017,1021,1022,1018,1019,1023,1024,1020
EN,528,1021,1025,1026,1022,1023,1027,1028,1024
EN,529,1025,1029,1030,1026,1027,1031,1032,1028
EN,530,1029,1033,1034,1030,1031,1035,1036,1032
EN,531,1033,842,850,1034,1035,994,1037,1036
MAT,2
EN,532,842,841,849,850,994,993,1038,1037
EN,533,841,843,851,849,993,995,1039,1038
MAT,1
EN,534,843,844,852,851,995,996,1040,1039
EN,535,846,845,853,854,998,997,1041,1042
MAT,3
EN,536,847,848,1043,1044,999,1000,1045,1046
EN,537,848,1002,859,1043,1000,1004,1047,1045
EN,538,1002,1006,860,859,1004,1008,1048,1047
EN,539,1006,1010,1049,860,1008,1012,1050,1048
EN,540,1010,1014,1051,1049,1012,1016,1052,1050
EN,541,1014,1018,1053,1051,1016,1020,1054,1052
EN,542,1018,1022,1055,1053,1020,1024,1056,1054
EN,543,1022,1026,1057,1055,1024,1028,1058,1056
EN,544,1026,1030,863,1057,1028,1032,1059,1058
EN,545,1030,1034,864,863,1032,1036,1060,1059
EN,546,1034,850,1061,864,1036,1037,1062,1060
EN,547,850,849,1063,1061,1037,1038,1064,1062
MAT,1
EN,548,851,852,855,856,1039,1040,1065,1066
EN,549,854,853,857,858,1042,1041,1067,1068
MAT,3
EN,550,1044,1043,1069,1070,1046,1045,1071,1072
EN,551,1043,859,862,1069,1045,1047,1073,1071
MAT,2
EN,552,859,860,861,862,1047,1048,1074,1073
MAT,3
EN,553,860,1049,1075,861,1048,1050,1076,1074
EN,554,1049,1051,1077,1075,1050,1052,1078,1076
EN,555,1051,1053,1079,1077,1052,1054,1080,1078
EN,556,1053,1055,1081,1079,1054,1056,1082,1080
EN,557,1055,1057,1083,1081,1056,1058,1084,1082
EN,558,1057,863,866,1083,1058,1059,1085,1084
MAT,2
EN,559,863,864,865,866,1059,1060,1086,1085
MAT,3
EN,560,864,1061,1087,865,1060,1062,1088,1086
EN,561,1061,1063,1089,1087,1062,1064,1090,1088
MAT,1
EN,562,856,855,867,868,1066,1065,1091,1092
EN,563,858,857,869,870,1068,1067,1093,1094
MAT,3
EN,564,1070,1069,1095,1096,1072,1071,1097,1098
EN,565,1069,862,1099,1095,1071,1073,1100,1097
EN,566,862,861,1101,1099,1073,1074,1102,1100
EN,567,861,1075,1103,1101,1074,1076,1104,1102
EN,568,1075,1077,1105,1103,1076,1078,1106,1104
EN,569,1077,1079,1107,1105,1078,1080,1108,1106
EN,570,1079,1081,1109,1107,1080,1082,1110,1108
EN,571,1081,1083,1111,1109,1082,1084,1112,1110
EN,572,1083,866,1113,1111,1084,1085,1114,1112
EN,573,866,865,1115,1113,1085,1086,1116,1114
EN,574,865,1087,1117,1115,1086,1088,1118,1116
EN,575,1087,1089,1119,1117,1088,1090,1120,1118
MAT,1
EN,576,868,867,871,872,1092,1091,1121,1122
EN,577,870,869,873,874,1094,1093,1123,1124
MAT,3
EN,578,1096,1095,1125,1126,1098,1097,1127,1128
EN,579,1095,1099,1129,1125,1097,1100,1130,1127
EN,580,1099,1101,1131,1129,1100,1102,1132,1130
EN,581,1101,1103,1133,1131,1102,1104,1134,1132
EN,582,1103,1105,1135,1133,1104,1106,1136,1134
EN,583,1105,1107,1137,1135,1106,1108,1138,1136
EN,584,1107,1109,1139,1137,1108,1110,1140,1138
EN,585,1109,1111,1141,1139,1110,1112,1142,1140
EN,586,1111,1113,1143,1141,1112,1114,1144,1142
EN,587,1113,1115,1145,1143,1114,1116,1146,1144
EN,588,1115,1117,1147,1145,1116,1118,1148,1146
EN,589,1117,1119,1149,1147,1118,1120,1150,1148
MAT,1
EN,590,872,871,875,876,1122,1121,1151,1152
EN,591,874,873,877,878,1124,1123,1153,1154
MAT,3
EN,592,1126,1125,1155,1156,1128,1127,1157,1158
EN,593,1125,1129,1159,1155,1127,1130,1160,1157
EN,594,1129,1131,1161,1159,1130,1132,1162,1160
EN,595,1131,1133,1163,1161,1132,1134,1164,1162
EN,596,1133,1135,1165,1163,1134,1136,1166,1164
EN,597,1135,1137,1167,1165,1136,1138,1168,1166
EN,598,1137,1139,1169,1167,1138,1140,1170,1168
EN,599,1139,1141,1171,1169,1140,1142,1172,1170
EN,600,1141,1143,1173,1171,1142,1144,1174,1172
EN,601,1143,1145,1175,1173,1144,1146,1176,1174
EN,602,1145,1147,1177,1175,1146,1148,1178,1176
EN,603,1147,1149,1179,1177,1148,1150,1180,1178
MAT,1
EN,604,876,875,879,880,1152,1151,1181,1182
EN,605,878,877,881,882,1154,1153,1183,1184
MAT,3
EN,606,1156,1155,1185,1186,1158,1157,1187,1188
EN,607,1155,1159,1189,1185,1157,1160,1190,1187
EN,608,1159,1161,1191,1189,1160,1162,1192,1190
EN,609,1161,1163,1193,1191,1162,1164,1194,1192
EN,610,1163,1165,1195,1193,1164,1166,1196,1194
EN,611,1165,1167,1197,1195,1166,1168,1198,1196
EN,612,1167,1169,1199,1197,1168,1170,1200,1198
EN,613,1169,1171,1201,1199,1170,1172,1202,1200
EN,614,1171,1173,1203,1201,1172,1174,1204,1202
EN,615,1173,1175,1205,1203,1174,1176,1206,1204
EN,616,1175,1177,1207,1205,1176,1178,1208,1206
EN,617,1177,1179,1209,1207,1178,1180,1210,1208
MAT,1
EN,618,880,879,883,884,1182,1181,1211,1212
EN,619,882,881,885,886,1184,1183,1213,1214
MAT,3
EN,620,1186,1185,1215,1216,1188,1187,1217,1218
EN,621,1185,1189,1219,1215,1187,1190,1220,1217
EN,622,1189,1191,1221,1219,1190,1192,1222,1220
EN,623,1191,1193,1223,1221,1192,1194,1224,1222
EN,624,1193,1195,1225,1223,1194,1196,1226,1224
EN,625,1195,1197,1227,1225,1196,1198,1228,1226
EN,626,1197,1199,1229,1227,1198,1200,1230,1228
EN,627,1199,1201,1231,1229,1200,1202,1232,1230
EN,628,1201,1203,1233,1231,1202,1204,1234,1232
EN,629,1203,1205,1235,1233,1204,1206,1236,1234
EN,630,1205,1207,1237,1235,1206,1208,1238,1236
EN,631,1207,1209,1239,1237,1208,1210,1240,1238
MAT,1
EN,632,884,883,887,888,1212,1211,1241,1242
EN,633,886,885,889,890,1214,1213,1243,1244
MAT,3
EN,634,1216,1215,1245,1246,1218,1217,1247,1248
EN,635,1215,1219,895,1245,1217,1220,1249,1247
EN,636,1219,1221,896,895,1220,1222,1250,1249
EN,637,1221,1223,1251,896,1222,1224,1252,1250
EN,638,1223,1225,1253,1251,1224,1226,1254,1252
EN,639,1225,1227,1255,1253,1226,1228,1256,1254
EN,640,1227,1229,1257,1255,1228,1230,1258,1256
EN,641,1229,1231,1259,1257,1230,1232,1260,1258
EN,642,1231,1233,899,1259,1232,1234,1261,1260
EN,643,1233,1235,900,899,1234,1236,1262,1261
EN,644,1235,1237,1263,900,1236,1238,1264,1262
EN,645,1237,1239,1265,1263,1238,1240,1266,1264
MAT,1
EN,646,888,887,891,892,1242,1241,1267,1268
EN,647,890,889,893,894,1244,1243,1269,1270
MAT,3
EN,648,1246,1245,1271,1272,1248,1247,1273,1274
EN,649,1245,895,898,1271,1247,1249,1275,1273
MAT,2
EN,650,895,896,897,898,1249,1250,1276,1275
MAT,3
EN,651,896,1251,1277,897,1250,1252,1278,1276
EN,652,1251,1253,1279,1277,1252,1254,1280,1278
EN,653,1253,1255,1281,1279,1254,1256,1282,1280
EN,654,1255,1257,1283,1281,1256,1258,1284,1282
EN,655,1257,1259,1285,1283,1258,1260,1286,1284
EN,656,1259,899,902,1285,1260,1261,1287,1286
MAT,2
EN,657,899,900,901,902,1261,1262,1288,1287
MAT,3
EN,658,900,1263,1289,901,1262,1264,1290,1288
EN,659,1263,1265,1291,1289,1264,1266,1292,1290
MAT,1
EN,660,892,891,903,904,1268,1267,1293,1294
EN,661,894,893,905,906,1270,1269,1295,1296
MAT,3
EN,662,1272,1271,913,911,1274,1273,1297,1298
EN,663,1271,898,1299,913,1273,1275,1300,1297
EN,664,898,897,1301,1299,1275,1276,1302,1300
EN,665,897,1277,1303,1301,1276,1278,1304,1302
EN,666,1277,1279,1305,1303,1278,1280,1306,1304
EN,667,1279,1281,1307,1305,1280,1282,1308,1306
EN,668,1281,1283,1309,1307,1282,1284,1310,1308
EN,669,1283,1285,1311,1309,1284,1286,1312,1310
EN,670,1285,902,1313,1311,1286,1287,1314,1312
EN,671,902,901,1315,1313,1287,1288,1316,1314
EN,672,901,1289,915,1315,1288,1290,1317,1316
EN,673,1289,1291,916,915,1290,1292,1318,1317
MAT,1
EN,674,904,903,907,908,1294,1293,1319,1320
EN,675,906,905,909,910,1296,1295,1321,1322
MAT,2
EN,676,905,911,912,909,1295,1298,1323,1321
EN,677,911,913,914,912,1298,1297,1324,1323
MAT,3
EN,678,913,1299,1325,914,1297,1300,1326,1324
EN,679,1299,1301,1327,1325,1300,1302,1328,1326
EN,680,1301,1303,1329,1327,1302,1304,1330,1328
EN,681,1303,1305,1331,1329,1304,1306,1332,1330
EN,682,1305,1307,1333,1331,1306,1308,1334,1332
EN,683,1307,1309,1335,1333,1308,1310,1336,1334
EN,684,1309,1311,1337,1335,1310,1312,1338,1336
EN,685,1311,1313,1339,1337,1312,1314,1340,1338
EN,686,1313,1315,1341,1339,1314,1316,1342,1340
EN,687,1315,915,918,1341,1316,1317,1343,1342
MAT,2
EN,688,915,916,917,918,1317,1318,1344,1343
EN,689,916,908,919,917,1318,1320,1345,1344
MAT,1
EN,690,908,907,920,919,1320,1319,1346,1345
EN,691,910,909,921,922,1322,1321,1347,1348
MAT,2
EN,692,909,912,923,921,1321,1323,1349,1347
EN,693,912,914,924,923,1323,1324,1350,1349
EN,694,918,917,925,926,1343,1344,1351,1352
EN,695,917,919,927,925,1344,1345,1353,1351
MAT,1
EN,696,919,920,928,927,1345,1346,1354,1353
EN,697,922,921,929,930,1348,1347,1355,1356
EN,698,921,923,931,929,1347,1349,1357,1355
EN,699,923,924,932,931,1349,1350,1358,1357
EN,700,924,933,934,932,1350,1359,1360,1358
EN,701,933,935,936,934,1359,1361,1362,1360
EN,702,935,937,938,936,1361,1363,1364,1362
EN,703,937,939,940,938,1363,1365,1366,1364
EN,704,939,941,942,940,1365,1367,1368,1366
EN,705,941,943,944,942,1367,1369,1370,1368
EN,706,943,945,946,944,1369,1371,1372,1370
EN,707,945,947,948,946,1371,1373,1374,1372
EN,708,947,949,950,948,1373,1375,1376,1374
EN,709,949,926,951,950,1375,1352,1377,1376
EN,710,926,925,952,951,1352,1351,1378,1377
EN,711,925,927,953,952,1351,1353,1379,1378
EN,712,927,928,954,953,1353,1354,1380,1379
EN,713,955,956,957,958,1381,1382,1383,1384
EN,714,956,959,960,957,1382,1385,1386,1383
EN,715,959,961,962,960,1385,1387,1388,1386
EN,716,961,963,964,962,1387,1389,1390,1388
EN,717,963,965,966,964,1389,1391,1392,1390
EN,718,965,967,968,966,1391,1393,1394,1392
EN,719,967,969,970,968,1393,1395,1396,1394
EN,720,969,971,972,970,1395,1397,1398,1396
EN,721,971,973,974,972,1397,1399,1400,1398
EN,722,973,975,976,974,1399,1401,1402,1400
EN,723,975,977,978,976,1401,1403,1404,1402
EN,724,977,979,980,978,1403,1405,1406,1404
EN,725,979,981,982,980,1405,1407,1408,1406
EN,726,981,983,984,982,1407,1409,1410,1408
EN,727,983,985,986,984,1409,1411,1412,1410
EN,728,985,987,988,986,1411,1413,1414,1412
EN,729,958,957,989,990,1384,1383,1415,1416
MAT,2
EN,730,957,960,991,989,1383,1386,1417,1415
EN,731,960,962,992,991,1386,1388,1418,1417
EN,732,982,984,993,994,1408,1410,1419,1420
EN,733,984,986,995,993,1410,1412,1421,1419
MAT,1
EN,734,986,988,996,995,1412,1414,1422,1421
EN,735,990,989,997,998,1416,1415,1423,1424
MAT,2
EN,736,989,991,999,997,1415,1417,1425,1423
EN,737,991,992,1000,999,1417,1418,1426,1425
EN,738,994,993,1038,1037,1420,1419,1427,1428
EN,739,993,995,1039,1038,1419,1421,1429,1427
MAT,1
EN,740,995,996,1040,1039,1421,1422,1430,1429
EN,741,998,997,1041,1042,1424,1423,1431,1432
EN,742,1039,1040,1065,1066,1429,1430,1433,1434
EN,743,1042,1041,1067,1068,1432,1431,1435,1436
MAT,2
EN,744,1047,1048,1074,1073,1437,1438,1439,1440
EN,745,1059,1060,1086,1085,1441,1442,1443,1444
MAT,1
EN,746,1066,1065,1091,1092,1434,1433,1445,1446
EN,747,1068,1067,1093,1094,1436,1435,1447,1448
EN,748,1092,1091,1121,1122,1446,1445,1449,1450
EN,749,1094,1093,1123,1124,1448,1447,1451,1452
EN,750,1122,1121,1151,1152,1450,1449,1453,1454
EN,751,1124,1123,1153,1154,1452,1451,1455,1456
EN,752,1152,1151,1181,1182,1454,1453,1457,1458
EN,753,1154,1153,1183,1184,1456,1455,1459,1460
EN,754,1182,1181,1211,1212,1458,1457,1461,1462
EN,755,1184,1183,1213,1214,1460,1459,1463,1464
EN,756,1212,1211,1241,1242,1462,1461,1465,1466
EN,757,1214,1213,1243,1244,1464,1463,1467,1468
EN,758,1242,1241,1267,1268,1466,1465,1469,1470
EN,759,1244,1243,1269,1270,1468,1467,1471,1472
MAT,2
EN,760,1249,1250,1276,1275,1473,1474,1475,1476
EN,761,1261,1262,1288,1287,1477,1478,1479,1480
MAT,1
EN,762,1268,1267,1293,1294,1470,1469,1481,1482
EN,763,1270,1269,1295,1296,1472,1471,1483,1484
EN,764,1294,1293,1319,1320,1482,1481,1485,1486
EN,765,1296,1295,1321,1322,1484,1483,1487,1488
MAT,2
EN,766,1295,1298,1323,1321,1483,1489,1490,1487
EN,767,1298,1297,1324,1323,1489,1491,1492,1490
EN,768,1317,1318,1344,1343,1493,1494,1495,1496
EN,769,1318,1320,1345,1344,1494,1486,1497,1495
MAT,1
EN,770,1320,1319,1346,1345,1486,1485,1498,1497
EN,771,1322,1321,1347,1348,1488,1487,1499,1500
MAT,2
EN,772,1321,1323,1349,1347,1487,1490,1501,1499
EN,773,1323,1324,1350,1349,1490,1492,1502,1501
EN,774,1343,1344,1351,1352,1496,1495,1503,1504
EN,775,1344,1345,1353,1351,1495,1497,1505,1503
MAT,1
EN,776,1345,1346,1354,1353,1497,1498,1506,1505
EN,777,1348,1347,1355,1356,1500,1499,1507,1508
EN,778,1347,1349,1357,1355,1499,1501,1509,1507
EN,779,1349,1350,1358,1357,1501,1502,1510,1509
EN,780,1350,1359,1360,1358,1502,1511,1512,1510
EN,781,1359,1361,1362,1360,1511,1513,1514,1512
EN,782,1361,1363,1364,1362,1513,1515,1516,1514
EN,783,1363,1365,1366,1364,1515,1517,1518,1516
EN,784,1365,1367,1368,1366,1517,1519,1520,1518
EN,785,1367,1369,1370,1368,1519,1521,1522,1520
EN,786,1369,1371,1372,1370,1521,1523,1524,1522
EN,787,1371,1373,1374,1372,1523,1525,1526,1524
EN,788,1373,1375,1376,1374,1525,1527,1528,1526
EN,789,1375,1352,1377,1376,1527,1504,1529,1528
EN,790,1352,1351,1378,1377,1504,1503,1530,1529
EN,791,1351,1353,1379,1378,1503,1505,1531,1530
EN,792,1353,1354,1380,1379,1505,1506,1532,1531
EN,793,1381,1382,1383,1384,1533,1534,1535,1536
EN,794,1382,1385,1386,1383,1534,1537,1538,1535
EN,795,1385,1387,1388,1386,1537,1539,1540,1538
EN,796,1387,1389,1390,1388,1539,1541,1542,1540
EN,797,1389,1391,1392,1390,1541,1543,1544,1542
EN,798,1391,1393,1394,1392,1543,1545,1546,1544
EN,799,1393,1395,1396,1394,1545,1547,1548,1546
EN,800,1395,1397,1398,1396,1547,1549,1550,1548
EN,801,1397,1399,1400,1398,1549,1551,1552,1550
EN,802,1399,1401,1402,1400,1551,1553,1554,1552
EN,803,1401,1403,1404,1402,1553,1555,1556,1554
EN,804,1403,1405,1406,1404,1555,1557,1558,1556
EN,805,1405,1407,1408,1406,1557,1559,1560,1558
EN,806,1407,1409,1410,1408,1559,1561,1562,1560
EN,807,1409,1411,1412,1410,1561,1563,1564,1562
EN,808,1411,1413,1414,1412,1563,1565,1566,1564
EN,809,1384,1383,1415,1416,1536,1535,1567,1568
MAT,2
EN,810,1383,1386,1417,1415,1535,1538,1569,1567
EN,811,1386,1388,1418,1417,1538,1540,1570,1569
EN,812,1408,1410,1419,1420,1560,1562,1571,1572
EN,813,1410,1412,1421,1419,1562,1564,1573,1571
MAT,1
EN,814,1412,1414,1422,1421,1564,1566,1574,1573
EN,815,1416,1415,1423,1424,1568,1567,1575,1576
MAT,2
EN,816,1415,1417,1425,1423,1567,1569,1577,1575
EN,817,1417,1418,1426,1425,1569,1570,1578,1577
MAT,3
EN,818,1418,1579,1580,1426,1570,1581,1582,1578
EN,819,1579,1583,1584,1580,1581,1585,1586,1582
EN,820,1583,1587,1588,1584,1585,1589,1590,1586
EN,821,1587,1591,1592,1588,1589,1593,1594,1590
EN,822,1591,1595,1596,1592,1593,1597,1598,1594
EN,823,1595,1599,1600,1596,1597,1601,1602,1598
EN,824,1599,1603,1604,1600,1601,1605,1606,1602
EN,825,1603,1607,1608,1604,1605,1609,1610,1606
EN,826,1607,1611,1612,1608,1609,1613,1614,1610
EN,827,1611,1420,1428,1612,1613,1572,1615,1614
MAT,2
EN,828,1420,1419,1427,1428,1572,1571,1616,1615
EN,829,1419,1421,1429,1427,1571,1573,1617,1616
MAT,1
EN,830,1421,1422,1430,1429,1573,1574,1618,1617
EN,831,1424,1423,1431,1432,1576,1575,1619,1620
MAT,3
EN,832,1425,1426,1621,1622,1577,1578,1623,1624
EN,833,1426,1580,1437,1621,1578,1582,1625,1623
EN,834,1580,1584,1438,1437,1582,1586,1626,1625
EN,835,1584,1588,1627,1438,1586,1590,1628,1626
EN,836,1588,1592,1629,1627,1590,1594,1630,1628
EN,837,1592,1596,1631,1629,1594,1598,1632,1630
EN,838,1596,1600,1633,1631,1598,1602,1634,1632
EN,839,1600,1604,1635,1633,1602,1606,1636,1634
EN,840,1604,1608,1441,1635,1606,1610,1637,1636
EN,841,1608,1612,1442,1441,1610,1614,1638,1637
EN,842,1612,1428,1639,1442,1614,1615,1640,1638
EN,843,1428,1427,1641,1639,1615,1616,1642,1640
MAT,1
EN,844,1429,1430,1433,1434,1617,1618,1643,1644
EN,845,1432,1431,1435,1436,1620,1619,1645,1646
MAT,3
EN,846,1622,1621,1647,1648,1624,1623,1649,1650
EN,847,1621,1437,1440,1647,1623,1625,1651,1649
MAT,2
EN,848,1437,1438,1439,1440,1625,1626,1652,1651
MAT,3
EN,849,1438,1627,1653,1439,1626,1628,1654,1652
EN,850,1627,1629,1655,1653,1628,1630,1656,1654
EN,851,1629,1631,1657,1655,1630,1632,1658,1656
EN,852,1631,1633,1659,1657,1632,1634,1660,1658
EN,853,1633,1635,1661,1659,1634,1636,1662,1660
EN,854,1635,1441,1444,1661,1636,1637,1663,1662
MAT,2
EN,855,1441,1442,1443,1444,1637,1638,1664,1663
MAT,3
EN,856,1442,1639,1665,1443,1638,1640,1666,1664
EN,857,1639,1641,1667,1665,1640,1642,1668,1666
MAT,1
EN,858,1434,1433,1445,1446,1644,1643,1669,1670
EN,859,1436,1435,1447,1448,1646,1645,1671,1672
MAT,3
EN,860,1648,1647,1673,1674,1650,1649,1675,1676
EN,861,1647,1440,1677,1673,1649,1651,1678,1675
EN,862,1440,1439,1679,1677,1651,1652,1680,1678
EN,863,1439,1653,1681,1679,1652,1654,1682,1680
EN,864,1653,1655,1683,1681,1654,1656,1684,1682
EN,865,1655,1657,1685,1683,1656,1658,1686,1684
EN,866,1657,1659,1687,1685,1658,1660,1688,1686
EN,867,1659,1661,1689,1687,1660,1662,1690,1688
EN,868,1661,1444,1691,1689,1662,1663,1692,1690
EN,869,1444,1443,1693,1691,1663,1664,1694,1692
EN,870,1443,1665,1695,1693,1664,1666,1696,1694
EN,871,1665,1667,1697,1695,1666,1668,1698,1696
MAT,1
EN,872,1446,1445,1449,1450,1670,1669,1699,1700
EN,873,1448,1447,1451,1452,1672,1671,1701,1702
MAT,3
EN,874,1674,1673,1703,1704,1676,1675,1705,1706
EN,875,1673,1677,1707,1703,1675,1678,1708,1705
EN,876,1677,1679,1709,1707,1678,1680,1710,1708
EN,877,1679,1681,1711,1709,1680,1682,1712,1710
EN,878,1681,1683,1713,1711,1682,1684,1714,1712
EN,879,1683,1685,1715,1713,1684,1686,1716,1714
EN,880,1685,1687,1717,1715,1686,1688,1718,1716
EN,881,1687,1689,1719,1717,1688,1690,1720,1718
EN,882,1689,1691,1721,1719,1690,1692,1722,1720
EN,883,1691,1693,1723,1721,1692,1694,1724,1722
EN,884,1693,1695,1725,1723,1694,1696,1726,1724
EN,885,1695,1697,1727,1725,1696,1698,1728,1726
MAT,1
EN,886,1450,1449,1453,1454,1700,1699,1729,1730
EN,887,1452,1451,1455,1456,1702,1701,1731,1732
MAT,3
EN,888,1704,1703,1733,1734,1706,1705,1735,1736
EN,889,1703,1707,1737,1733,1705,1708,1738,1735
EN,890,1707,1709,1739,1737,1708,1710,1740,1738
EN,891,1709,1711,1741,1739,1710,1712,1742,1740
EN,892,1711,1713,1743,1741,1712,1714,1744,1742
EN,893,1713,1715,1745,1743,1714,1716,1746,1744
EN,894,1715,1717,1747,1745,1716,1718,1748,1746
EN,895,1717,1719,1749,1747,1718,1720,1750,1748
EN,896,1719,1721,1751,1749,1720,1722,1752,1750
EN,897,1721,1723,1753,1751,1722,1724,1754,1752
EN,898,1723,1725,1755,1753,1724,1726,1756,1754
EN,899,1725,1727,1757,1755,1726,1728,1758,1756
MAT,1
EN,900,1454,1453,1457,1458,1730,1729,1759,1760
EN,901,1456,1455,1459,1460,1732,1731,1761,1762
MAT,3
EN,902,1734,1733,1763,1764,1736,1735,1765,1766
EN,903,1733,1737,1767,1763,1735,1738,1768,1765
EN,904,1737,1739,1769,1767,1738,1740,1770,1768
EN,905,1739,1741,1771,1769,1740,1742,1772,1770
EN,906,1741,1743,1773,1771,1742,1744,1774,1772
EN,907,1743,1745,1775,1773,1744,1746,1776,1774
EN,908,1745,1747,1777,1775,1746,1748,1778,1776
EN,909,1747,1749,1779,1777,1748,1750,1780,1778
EN,910,1749,1751,1781,1779,1750,1752,1782,1780
EN,911,1751,1753,1783,1781,1752,1754,1784,1782
EN,912,1753,1755,1785,1783,1754,1756,1786,1784
EN,913,1755,1757,1787,1785,1756,1758,1788,1786
MAT,1
EN,914,1458,1457,1461,1462,1760,1759,1789,1790
EN,915,1460,1459,1463,1464,1762,1761,1791,1792
MAT,3
EN,916,1764,1763,1793,1794,1766,1765,1795,1796
EN,917,1763,1767,1797,1793,1765,1768,1798,1795
EN,918,1767,1769,1799,1797,1768,1770,1800,1798
EN,919,1769,1771,1801,1799,1770,1772,1802,1800
EN,920,1771,1773,1803,1801,1772,1774,1804,1802
EN,921,1773,1775,1805,1803,1774,1776,1806,1804
EN,922,1775,1777,1807,1805,1776,1778,1808,1806
EN,923,1777,1779,1809,1807,1778,1780,1810,1808
EN,924,1779,1781,1811,1809,1780,1782,1812,1810
EN,925,1781,1783,1813,1811,1782,1784,1814,1812
EN,926,1783,1785,1815,1813,1784,1786,1816,1814
EN,927,1785,1787,1817,1815,1786,1788,1818,1816
MAT,1
EN,928,1462,1461,1465,1466,1790,1789,1819,1820
EN,929,1464,1463,1467,1468,1792,1791,1821,1822
MAT,3
EN,930,1794,1793,1823,1824,1796,1795,1825,1826
EN,931,1793,1797,1473,1823,1795,1798,1827,1825
EN,932,1797,1799,1474,1473,1798,1800,1828,1827
EN,933,1799,1801,1829,1474,1800,1802,1830,1828
EN,934,1801,1803,1831,1829,1802,1804,1832,1830
EN,935,1803,1805,1833,1831,1804,1806,1834,1832
EN,936,1805,1807,1835,1833,1806,1808,1836,1834
EN,937,1807,1809,1837,1835,1808,1810,1838,1836
EN,938,1809,1811,1477,1837,1810,1812,1839,1838
EN,939,1811,1813,1478,1477,1812,1814,1840,1839
EN,940,1813,1815,1841,1478,1814,1816,1842,1840
EN,941,1815,1817,1843,1841,1816,1818,1844,1842
MAT,1
EN,942,1466,1465,1469,1470,1820,1819,1845,1846
EN,943,1468,1467,1471,1472,1822,1821,1847,1848
MAT,3
EN,944,1824,1823,1849,1850,1826,1825,1851,1852
EN,945,1823,1473,1476,1849,1825,1827,1853,1851
MAT,2
EN,946,1473,1474,1475,1476,1827,1828,1854,1853
MAT,3
EN,947,1474,1829,1855,1475,1828,1830,1856,1854
EN,948,1829,1831,1857,1855,1830,1832,1858,1856
EN,949,1831,1833,1859,1857,1832,1834,1860,1858
EN,950,1833,1835,1861,1859,1834,1836,1862,1860
EN,951,1835,1837,1863,1861,1836,1838,1864,1862
EN,952,1837,1477,1480,1863,1838,1839,1865,1864
MAT,2
EN,953,1477,1478,1479,1480,1839,1840,1866,1865
MAT,3
EN,954,1478,1841,1867,1479,1840,1842,1868,1866
EN,955,1841,1843,1869,1867,1842,1844,1870,1868
MAT,1
EN,956,1470,1469,1481,1482,1846,1845,1871,1872
EN,957,1472,1471,1483,1484,1848,1847,1873,1874
MAT,3
EN,958,1850,1849,1491,1489,1852,1851,1875,1876
EN,959,1849,1476,1877,1491,1851,1853,1878,1875
EN,960,1476,1475,1879,1877,1853,1854,1880,1878
EN,961,1475,1855,1881,1879,1854,1856,1882,1880
EN,962,1855,1857,1883,1881,1856,1858,1884,1882
EN,963,1857,1859,1885,1883,1858,1860,1886,1884
EN,964,1859,1861,1887,1885,1860,1862,1888,1886
EN,965,1861,1863,1889,1887,1862,1864,1890,1888
EN,966,1863,1480,1891,1889,1864,1865,1892,1890
EN,967,1480,1479,1893,1891,1865,1866,1894,1892
EN,968,1479,1867,1493,1893,1866,1868,1895,1894
EN,969,1867,1869,1494,1493,1868,1870,1896,1895
MAT,1
EN,970,1482,1481,1485,1486,1872,1871,1897,1898
EN,971,1484,1483,1487,1488,1874,1873,1899,1900
MAT,2
EN,972,1483,1489,1490,1487,1873,1876,1901,1899
EN,973,1489,1491,1492,1490,1876,1875,1902,1901
MAT,3
EN,974,1491,1877,1903,1492,1875,1878,1904,1902
EN,975,1877,1879,1905,1903,1878,1880,1906,1904
EN,976,1879,1881,1907,1905,1880,1882,1908,1906
EN,977,1881,1883,1909,1907,1882,1884,1910,1908
EN,978,1883,1885,1911,1909,1884,1886,1912,1910
EN,979,1885,1887,1913,1911,1886,1888,1914,1912
EN,980,1887,1889,1915,1913,1888,1890,1916,1914
EN,981,1889,1891,1917,1915,1890,1892,1918,1916
EN,982,1891,1893,1919,1917,1892,1894,1920,1918
EN,983,1893,1493,1496,1919,1894,1895,1921,1920
MAT,2
EN,984,1493,1494,1495,1496,1895,1896,1922,1921
EN,985,1494,1486,1497,1495,1896,1898,1923,1922
MAT,1
EN,986,1486,1485,1498,1497,1898,1897,1924,1923
EN,987,1488,1487,1499,1500,1900,1899,1925,1926
MAT,2
EN,988,1487,1490,1501,1499,1899,1901,1927,1925
EN,989,1490,1492,1502,1501,1901,1902,1928,1927
EN,990,1496,1495,1503,1504,1921,1922,1929,1930
EN,991,1495,1497,1505,1503,1922,1923,1931,1929
MAT,1
EN,992,1497,1498,1506,1505,1923,1924,1932,1931
EN,993,1500,1499,1507,1508,1926,1925,1933,1934
EN,994,1499,1501,1509,1507,1925,1927,1935,1933
EN,995,1501,1502,1510,1509,1927,1928,1936,1935
EN,996,1502,1511,1512,1510,1928,1937,1938,1936
EN,997,1511,1513,1514,1512,1937,1939,1940,1938
EN,998,1513,1515,1516,1514,1939,1941,1942,1940
EN,999,1515,1517,1518,1516,1941,1943,1944,1942
EN,1000,1517,1519,1520,1518,1943,1945,1946,1944
EN,1001,1519,1521,1522,1520,1945,1947,1948,1946
EN,1002,1521,1523,1524,1522,1947,1949,1950,1948
EN,1003,1523,1525,1526,1524,1949,1951,1952,1950
EN,1004,1525,1527,1528,1526,1951,1953,1954,1952
EN,1005,1527,1504,1529,1528,1953,1930,1955,1954
EN,1006,1504,1503,1530,1529,1930,1929,1956,1955
EN,1007,1503,1505,1531,1530,1929,1931,1957,1956
EN,1008,1505,1506,1532,1531,1931,1932,1958,1957
EN,1009,1533,1534,1535,1536,1959,1960,1961,1962
EN,1010,1534,1537,1538,1535,1960,1963,1964,1961
EN,1011,1537,1539,1540,1538,1963,1965,1966,1964
EN,1012,1539,1541,1542,1540,1965,1967,1968,1966
EN,1013,1541,1543,1544,1542,1967,1969,1970,1968
EN,1014,1543,1545,1546,1544,1969,1971,1972,1970
EN,1015,1545,1547,1548,1546,1971,1973,1974,1972
EN,1016,1547,1549,1550,1548,1973,1975,1976,1974
EN,1017,1549,1551,1552,1550,1975,1977,1978,1976
EN,1018,1551,1553,1554,1552,1977,1979,1980,1978
EN,1019,1553,1555,1556,1554,1979,1981,1982,1980
EN,1020,1555,1557,1558,1556,1981,1983,1984,1982
EN,1021,1557,1559,1560,1558,1983,1985,1986,1984
EN,1022,1559,1561,1562,1560,1985,1987,1988,1986
EN,1023,1561,1563,1564,1562,1987,1989,1990,1988
EN,1024,1563,1565,1566,1564,1989,1991,1992,1990
EN,1025,1536,1535,1567,1568,1962,1961,1993,1994
MAT,2
EN,1026,1535,1538,1569,1567,1961,1964,1995,1993
EN,1027,1538,1540,1570,1569,1964,1966,1996,1995
EN,1028,1560,1562,1571,1572,1986,1988,1997,1998
EN,1029,1562,1564,1573,1571,1988,1990,1999,1997
MAT,1
EN,1030,1564,1566,1574,1573,1990,1992,2000,1999
EN,1031,1568,1567,1575,1576,1994,1993,2001,2002
MAT,2
EN,1032,1567,1569,1577,1575,1993,1995,2003,2001
EN,1033,1569,1570,1578,1577,1995,1996,2004,2003
EN,1034,1572,1571,1616,1615,1998,1997,2005,2006
EN,1035,1571,1573,1617,1616,1997,1999,2007,2005
MAT,1
EN,1036,1573,1574,1618,1617,1999,2000,2008,2007
EN,1037,1576,1575,1619,1620,2002,2001,2009,2010
EN,1038,1617,1618,1643,1644,2007,2008,2011,2012
EN,1039,1620,1619,1645,1646,2010,2009,2013,2014
MAT,2
EN,1040,1625,1626,1652,1651,2015,2016,2017,2018
EN,1041,1637,1638,1664,1663,2019,2020,2021,2022
MAT,1
EN,1042,1644,1643,1669,1670,2012,2011,2023,2024
EN,1043,1646,1645,1671,1672,2014,2013,2025,2026
EN,1044,1670,1669,1699,1700,2024,2023,2027,2028
EN,1045,1672,1671,1701,1702,2026,2025,2029,2030
MAT,4
EN,1046,1682,1684,1714,1712,2031,2032,2033,2034
EN,1047,1684,1686,1716,1714,2032,2035,2036,2033
EN,1048,1686,1688,1718,1716,2035,2037,2038,2036
EN,1049,1688,1690,1720,1718,2037,2039,2040,2038
MAT,1
EN,1050,1700,1699,1729,1730,2028,2027,2041,2042
EN,1051,1702,1701,1731,1732,2030,2029,2043,2044
MAT,4
EN,1052,1712,1714,1744,1742,2034,2033,2045,2046
EN,1053,1714,1716,1746,1744,2033,2036,2047,2045
EN,1054,1716,1718,1748,1746,2036,2038,2048,2047
EN,1055,1718,1720,1750,1748,2038,2040,2049,2048
MAT,1
EN,1056,1730,1729,1759,1760,2042,2041,2050,2051
EN,1057,1732,1731,1761,1762,2044,2043,2052,2053
MAT,4
EN,1058,1742,1744,1774,1772,2046,2045,2054,2055
EN,1059,1744,1746,1776,1774,2045,2047,2056,2054
EN,1060,1746,1748,1778,1776,2047,2048,2057,2056
EN,1061,1748,1750,1780,1778,2048,2049,2058,2057
MAT,1
EN,1062,1760,1759,1789,1790,2051,2050,2059,2060
EN,1063,1762,1761,1791,1792,2053,2052,2061,2062
MAT,4
EN,1064,1772,1774,1804,1802,2055,2054,2063,2064
EN,1065,1774,1776,1806,1804,2054,2056,2065,2063
EN,1066,1776,1778,1808,1806,2056,2057,2066,2065
EN,1067,1778,1780,1810,1808,2057,2058,2067,2066
MAT,1
EN,1068,1790,1789,1819,1820,2060,2059,2068,2069
EN,1069,1792,1791,1821,1822,2062,2061,2070,2071
EN,1070,1820,1819,1845,1846,2069,2068,2072,2073
EN,1071,1822,1821,1847,1848,2071,2070,2074,2075
MAT,2
EN,1072,1827,1828,1854,1853,2076,2077,2078,2079
EN,1073,1839,1840,1866,1865,2080,2081,2082,2083
MAT,1
EN,1074,1846,1845,1871,1872,2073,2072,2084,2085
EN,1075,1848,1847,1873,1874,2075,2074,2086,2087
EN,1076,1872,1871,1897,1898,2085,2084,2088,2089
EN,1077,1874,1873,1899,1900,2087,2086,2090,2091
MAT,2
EN,1078,1873,1876,1901,1899,2086,2092,2093,2090
EN,1079,1876,1875,1902,1901,2092,2094,2095,2093
EN,1080,1895,1896,1922,1921,2096,2097,2098,2099
EN,1081,1896,1898,1923,1922,2097,2089,2100,2098
MAT,1
EN,1082,1898,1897,1924,1923,2089,2088,2101,2100
EN,1083,1900,1899,1925,1926,2091,2090,2102,2103
MAT,2
EN,1084,1899,1901,1927,1925,2090,2093,2104,2102
EN,1085,1901,1902,1928,1927,2093,2095,2105,2104
EN,1086,1921,1922,1929,1930,2099,2098,2106,2107
EN,1087,1922,1923,1931,1929,2098,2100,2108,2106
MAT,1
EN,1088,1923,1924,1932,1931,2100,2101,2109,2108
EN,1089,1926,1925,1933,1934,2103,2102,2110,2111
EN,1090,1925,1927,1935,1933,2102,2104,2112,2110
EN,1091,1927,1928,1936,1935,2104,2105,2113,2112
EN,1092,1928,1937,1938,1936,2105,2114,2115,2113
EN,1093,1937,1939,1940,1938,2114,2116,2117,2115
EN,1094,1939,1941,1942,1940,2116,2118,2119,2117
EN,1095,1941,1943,1944,1942,2118,2120,2121,2119
EN,1096,1943,1945,1946,1944,2120,2122,2123,2121
EN,1097,1945,1947,1948,1946,2122,2124,2125,2123
EN,1098,1947,1949,1950,1948,2124,2126,2127,2125
EN,1099,1949,1951,1952,1950,2126,2128,2129,2127
EN,1100,1951,1953,1954,1952,2128,2130,2131,2129
EN,1101,1953,1930,1955,1954,2130,2107,2132,2131
EN,1102,1930,1929,1956,1955,2107,2106,2133,2132
EN,1103,1929,1931,1957,1956,2106,2108,2134,2133
EN,1104,1931,1932,1958,1957,2108,2109,2135,2134
EN,1105,1959,1960,1961,1962,2136,2137,2138,2139
EN,1106,1960,1963,1964,1961,2137,2140,2141,2138
EN,1107,1963,1965,1966,1964,2140,2142,2143,2141
EN,1108,1965,1967,1968,1966,2142,2144,2145,2143
EN,1109,1967,1969,1970,1968,2144,2146,2147,2145
EN,1110,1969,1971,1972,1970,2146,2148,2149,2147
EN,1111,1971,1973,1974,1972,2148,2150,2151,2149
EN,1112,1973,1975,1976,1974,2150,2152,2153,2151
EN,1113,1975,1977,1978,1976,2152,2154,2155,2153
EN,1114,1977,1979,1980,1978,2154,2156,2157,2155
EN,1115,1979,1981,1982,1980,2156,2158,2159,2157
EN,1116,1981,1983,1984,1982,2158,2160,2161,2159
EN,1117,1983,1985,1986,1984,2160,2162,2163,2161
EN,1118,1985,1987,1988,1986,2162,2164,2165,2163
EN,1119,1987,1989,1990,1988,2164,2166,2167,2165
EN,1120,1989,1991,1992,1990,2166,2168,2169,2167
EN,1121,1962,1961,1993,1994,2139,2138,2170,2171
MAT,2
EN,1122,1961,1964,1995,1993,2138,2141,2172,2170
EN,1123,1964,1966,1996,1995,2141,2143,2173,2172
EN,1124,1986,1988,1997,1998,2163,2165,2174,2175
EN,1125,1988,1990,1999,1997,2165,2167,2176,2174
MAT,1
EN,1126,1990,1992,2000,1999,2167,2169,2177,2176
EN,1127,1994,1993,2001,2002,2171,2170,2178,2179
MAT,2
EN,1128,1993,1995,2003,2001,2170,2172,2180,2178
EN,1129,1995,1996,2004,2003,2172,2173,2181,2180
EN,1130,1998,1997,2005,2006,2175,2174,2182,2183
EN,1131,1997,1999,2007,2005,2174,2176,2184,2182
MAT,1
EN,1132,1999,2000,2008,2007,2176,2177,2185,2184
EN,1133,2002,2001,2009,2010,2179,2178,2186,2187
EN,1134,2007,2008,2011,2012,2184,2185,2188,2189
EN,1135,2010,2009,2013,2014,2187,2186,2190,2191
MAT,2
EN,1136,2015,2016,2017,2018,2192,2193,2194,2195
EN,1137,2019,2020,2021,2022,2196,2197,2198,2199
MAT,1
EN,1138,2012,2011,2023,2024,2189,2188,2200,2201
EN,1139,2014,2013,2025,2026,2191,2190,2202,2203
EN,1140,2024,2023,2027,2028,2201,2200,2204,2205
EN,1141,2026,2025,2029,2030,2203,2202,2206,2207
EN,1142,2028,2027,2041,2042,2205,2204,2208,2209
EN,1143,2030,2029,2043,2044,2207,2206,2210,2211
EN,1144,2042,2041,2050,2051,2209,2208,2212,2213
EN,1145,2044,2043,2052,2053,2211,2210,2214,2215
EN,1146,2051,2050,2059,2060,2213,2212,2216,2217
EN,1147,2053,2052,2061,2062,2215,2214,2218,2219
EN,1148,2060,2059,2068,2069,2217,2216,2220,2221
EN,1149,2062,2061,2070,2071,2219,2218,2222,2223
EN,1150,2069,2068,2072,2073,2221,2220,2224,2225
EN,1151,2071,2070,2074,2075,2223,2222,2226,2227
MAT,2
EN,1152,2076,2077,2078,2079,2228,2229,2230,2231
EN,1153,2080,2081,2082,2083,2232,2233,2234,2235
MAT,1
EN,1154,2073,2072,2084,2085,2225,2224,2236,2237
EN,1155,2075,2074,2086,2087,2227,2226,2238,2239
EN,1156,2085,2084,2088,2089,2237,2236,2240,2241
EN,1157,2087,2086,2090,2091,2239,2238,2242,2243
MAT,2
EN,1158,2086,2092,2093,2090,2238,2244,2245,2242
EN,1159,2092,2094,2095,2093,2244,2246,2247,2245
EN,1160,2096,2097,2098,2099,2248,2249,2250,2251
EN,1161,2097,2089,2100,2098,2249,2241,2252,2250
MAT,1
EN,1162,2089,2088,2101,2100,2241,2240,2253,2252
EN,1163,2091,2090,2102,2103,2243,2242,2254,2255
MAT,2
EN,1164,2090,2093,2104,2102,2242,2245,2256,2254
EN,1165,2093,2095,2105,2104,2245,2247,2257,2256
EN,1166,2099,2098,2106,2107,2251,2250,2258,2259
EN,1167,2098,2100,2108,2106,2250,2252,2260,2258
MAT,1
EN,1168,2100,2101,2109,2108,2252,2253,2261,2260
EN,1169,2103,2102,2110,2111,2255,2254,2262,2263
EN,1170,2102,2104,2112,2110,2254,2256,2264,2262
EN,1171,2104,2105,2113,2112,2256,2257,2265,2264
EN,1172,2105,2114,2115,2113,2257,2266,2267,2265
EN,1173,2114,2116,2117,2115,2266,2268,2269,2267
EN,1174,2116,2118,2119,2117,2268,2270,2271,2269
EN,1175,2118,2120,2121,2119,2270,2272,2273,2271
EN,1176,2120,2122,2123,2121,2272,2274,2275,2273
EN,1177,2122,2124,2125,2123,2274,2276,2277,2275
EN,1178,2124,2126,2127,2125,2276,2278,2279,2277
EN,1179,2126,2128,2129,2127,2278,2280,2281,2279
EN,1180,2128,2130,2131,2129,2280,2282,2283,2281
EN,1181,2130,2107,2132,2131,2282,2259,2284,2283
EN,1182,2107,2106,2133,2132,2259,2258,2285,2284
EN,1183,2106,2108,2134,2133,2258,2260,2286,2285
EN,1184,2108,2109,2135,2134,2260,2261,2287,2286
EN,1185,2136,2137,2138,2139,2288,2289,2290,2291
EN,1186,2137,2140,2141,2138,2289,2292,2293,2290
EN,1187,2140,2142,2143,2141,2292,2294,2295,2293
EN,1188,2142,2144,2145,2143,2294,2296,2297,2295
EN,1189,2144,2146,2147,2145,2296,2298,2299,2297
EN,1190,2146,2148,2149,2147,2298,2300,2301,2299
EN,1191,2148,2150,2151,2149,2300,2302,2303,2301
EN,1192,2150,2152,2153,2151,2302,2304,2305,2303
EN,1193,2152,2154,2155,2153,2304,2306,2307,2305
EN,1194,2154,2156,2157,2155,2306,2308,2309,2307
EN,1195,2156,2158,2159,2157,2308,2310,2311,2309
EN,1196,2158,2160,2161,2159,2310,2312,2313,2311
EN,1197,2160,2162,2163,2161,2312,2314,2315,2313
EN,1198,2162,2164,2165,2163,2314,2316,2317,2315
EN,1199,2164,2166,2167,2165,2316,2318,2319,2317
EN,1200,2166,2168,2169,2167,2318,2320,2321,2319
EN,1201,2139,2138,2170,2171,2291,2290,2322,2323
MAT,2
EN,1202,2138,2141,2172,2170,2290,2293,2324,2322
EN,1203,2141,2143,2173,2172,2293,2295,2325,2324
EN,1204,2163,2165,2174,2175,2315,2317,2326,2327
EN,1205,2165,2167,2176,2174,2317,2319,2328,2326
MAT,1
EN,1206,2167,2169,2177,2176,2319,2321,2329,2328
EN,1207,2171,2170,2178,2179,2323,2322,2330,2331
MAT,2
EN,1208,2170,2172,2180,2178,2322,2324,2332,2330
EN,1209,2172,2173,2181,2180,2324,2325,2333,2332
MAT,3
EN,1210,2173,2334,2335,2181,2325,2336,2337,2333
EN,1211,2334,2338,2339,2335,2336,2340,2341,2337
EN,1212,2338,2342,2343,2339,2340,2344,2345,2341
EN,1213,2342,2346,2347,2343,2344,2348,2349,2345
EN,1214,2346,2350,2351,2347,2348,2352,2353,2349
EN,1215,2350,2354,2355,2351,2352,2356,2357,2353
EN,1216,2354,2358,2359,2355,2356,2360,2361,2357
EN,1217,2358,2362,2363,2359,2360,2364,2365,2361
EN,1218,2362,2366,2367,2363,2364,2368,2369,2365
EN,1219,2366,2175,2183,2367,2368,2327,2370,2369
MAT,2
EN,1220,2175,2174,2182,2183,2327,2326,2371,2370
EN,1221,2174,2176,2184,2182,2326,2328,2372,2371
MAT,1
EN,1222,2176,2177,2185,2184,2328,2329,2373,2372
EN,1223,2179,2178,2186,2187,2331,2330,2374,2375
MAT,3
EN,1224,2180,2181,2376,2377,2332,2333,2378,2379
EN,1225,2181,2335,2192,2376,2333,2337,2380,2378
EN,1226,2335,2339,2193,2192,2337,2341,2381,2380
EN,1227,2339,2343,2382,2193,2341,2345,2383,2381
EN,1228,2343,2347,2384,2382,2345,2349,2385,2383
EN,1229,2347,2351,2386,2384,2349,2353,2387,2385
EN,1230,2351,2355,2388,2386,2353,2357,2389,2387
EN,1231,2355,2359,2390,2388,2357,2361,2391,2389
EN,1232,2359,2363,2196,2390,2361,2365,2392,2391
EN,1233,2363,2367,2197,2196,2365,2369,2393,2392
EN,1234,2367,2183,2394,2197,2369,2370,2395,2393
EN,1235,2183,2182,2396,2394,2370,2371,2397,2395
MAT,1
EN,1236,2184,2185,2188,2189,2372,2373,2398,2399
EN,1237,2187,2186,2190,2191,2375,2374,2400,2401
MAT,3
EN,1238,2377,2376,2402,2403,2379,2378,2404,2405
EN,1239,2376,2192,2195,2402,2378,2380,2406,2404
MAT,2
EN,1240,2192,2193,2194,2195,2380,2381,2407,2406
MAT,3
EN,1241,2193,2382,2408,2194,2381,2383,2409,2407
EN,1242,2382,2384,2410,2408,2383,2385,2411,2409
EN,1243,2384,2386,2412,2410,2385,2387,2413,2411
EN,1244,2386,2388,2414,2412,2387,2389,2415,2413
EN,1245,2388,2390,2416,2414,2389,2391,2417,2415
EN,1246,2390,2196,2199,2416,2391,2392,2418,2417
MAT,2
EN,1247,2196,2197,2198,2199,2392,2393,2419,2418
MAT,3
EN,1248,2197,2394,2420,2198,2393,2395,2421,2419
EN,1249,2394,2396,2422,2420,2395,2397,2423,2421
MAT,1
EN,1250,2189,2188,2200,2201,2399,2398,2424,2425
EN,1251,2191,2190,2202,2203,2401,2400,2426,2427
MAT,3
EN,1252,2403,2402,2428,2429,2405,2404,2430,2431
EN,1253,2402,2195,2432,2428,2404,2406,2433,2430
EN,1254,2195,2194,2434,2432,2406,2407,2435,2433
EN,1255,2194,2408,2436,2434,2407,2409,2437,2435
EN,1256,2408,2410,2438,2436,2409,2411,2439,2437
EN,1257,2410,2412,2440,2438,2411,2413,2441,2439
EN,1258,2412,2414,2442,2440,2413,2415,2443,2441
EN,1259,2414,2416,2444,2442,2415,2417,2445,2443
EN,1260,2416,2199,2446,2444,2417,2418,2447,2445
EN,1261,2199,2198,2448,2446,2418,2419,2449,2447
EN,1262,2198,2420,2450,2448,2419,2421,2451,2449
EN,1263,2420,2422,2452,2450,2421,2423,2453,2451
MAT,1
EN,1264,2201,2200,2204,2205,2425,2424,2454,2455
EN,1265,2203,2202,2206,2207,2427,2426,2456,2457
MAT,3
EN,1266,2429,2428,2458,2459,2431,2430,2460,2461
EN,1267,2428,2432,2462,2458,2430,2433,2463,2460
EN,1268,2432,2434,2464,2462,2433,2435,2465,2463
EN,1269,2434,2436,2466,2464,2435,2437,2467,2465
EN,1270,2436,2438,2468,2466,2437,2439,2469,2467
EN,1271,2438,2440,2470,2468,2439,2441,2471,2469
EN,1272,2440,2442,2472,2470,2441,2443,2473,2471
EN,1273,2442,2444,2474,2472,2443,2445,2475,2473
EN,1274,2444,2446,2476,2474,2445,2447,2477,2475
EN,1275,2446,2448,2478,2476,2447,2449,2479,2477
EN,1276,2448,2450,2480,2478,2449,2451,2481,2479
EN,1277,2450,2452,2482,2480,2451,2453,2483,2481
MAT,1
EN,1278,2205,2204,2208,2209,2455,2454,2484,2485
EN,1279,2207,2206,2210,2211,2457,2456,2486,2487
MAT,3
EN,1280,2459,2458,2488,2489,2461,2460,2490,2491
EN,1281,2458,2462,2492,2488,2460,2463,2493,2490
EN,1282,2462,2464,2494,2492,2463,2465,2495,2493
EN,1283,2464,2466,2496,2494,2465,2467,2497,2495
EN,1284,2466,2468,2498,2496,2467,2469,2499,2497
EN,1285,2468,2470,2500,2498,2469,2471,2501,2499
EN,1286,2470,2472,2502,2500,2471,2473,2503,2501
EN,1287,2472,2474,2504,2502,2473,2475,2505,2503
EN,1288,2474,2476,2506,2504,2475,2477,2507,2505
EN,1289,2476,2478,2508,2506,2477,2479,2509,2507
EN,1290,2478,2480,2510,2508,2479,2481,2511,2509
EN,1291,2480,2482,2512,2510,2481,2483,2513,2511
MAT,1
EN,1292,2209,2208,2212,2213,2485,2484,2514,2515
EN,1293,2211,2210,2214,2215,2487,2486,2516,2517
MAT,3
EN,1294,2489,2488,2518,2519,2491,2490,2520,2521
EN,1295,2488,2492,2522,2518,2490,2493,2523,2520
EN,1296,2492,2494,2524,2522,2493,2495,2525,2523
EN,1297,2494,2496,2526,2524,2495,2497,2527,2525
EN,1298,2496,2498,2528,2526,2497,2499,2529,2527
EN,1299,2498,2500,2530,2528,2499,2501,2531,2529
EN,1300,2500,2502,2532,2530,2501,2503,2533,2531
EN,1301,2502,2504,2534,2532,2503,2505,2535,2533
EN,1302,2504,2506,2536,2534,2505,2507,2537,2535
EN,1303,2506,2508,2538,2536,2507,2509,2539,2537
EN,1304,2508,2510,2540,2538,2509,2511,2541,2539
EN,1305,2510,2512,2542,2540,2511,2513,2543,2541
MAT,1
EN,1306,2213,2212,2216,2217,2515,2514,2544,2545
EN,1307,2215,2214,2218,2219,2517,2516,2546,2547
MAT,3
EN,1308,2519,2518,2548,2549,2521,2520,2550,2551
EN,1309,2518,2522,2552,2548,2520,2523,2553,2550
EN,1310,2522,2524,2554,2552,2523,2525,2555,2553
EN,1311,2524,2526,2556,2554,2525,2527,2557,2555
EN,1312,2526,2528,2558,2556,2527,2529,2559,2557
EN,1313,2528,2530,2560,2558,2529,2531,2561,2559
EN,1314,2530,2532,2562,2560,2531,2533,2563,2561
EN,1315,2532,2534,2564,2562,2533,2535,2565,2563
EN,1316,2534,2536,2566,2564,2535,2537,2567,2565
EN,1317,2536,2538,2568,2566,2537,2539,2569,2567
EN,1318,2538,2540,2570,2568,2539,2541,2571,2569
EN,1319,2540,2542,2572,2570,2541,2543,2573,2571
MAT,1
EN,1320,2217,2216,2220,2221,2545,2544,2574,2575
EN,1321,2219,2218,2222,2223,2547,2546,2576,2577
MAT,3
EN,1322,2549,2548,2578,2579,2551,2550,2580,2581
EN,1323,2548,2552,2228,2578,2550,2553,2582,2580
EN,1324,2552,2554,2229,2228,2553,2555,2583,2582
EN,1325,2554,2556,2584,2229,2555,2557,2585,2583
EN,1326,2556,2558,2586,2584,2557,2559,2587,2585
EN,1327,2558,2560,2588,2586,2559,2561,2589,2587
EN,1328,2560,2562,2590,2588,2561,2563,2591,2589
EN,1329,2562,2564,2592,2590,2563,2565,2593,2591
EN,1330,2564,2566,2232,2592,2565,2567,2594,2593
EN,1331,2566,2568,2233,2232,2567,2569,2595,2594
EN,1332,2568,2570,2596,2233,2569,2571,2597,2595
EN,1333,2570,2572,2598,2596,2571,2573,2599,2597
MAT,1
EN,1334,2221,2220,2224,2225,2575,2574,2600,2601
EN,1335,2223,2222,2226,2227,2577,2576,2602,2603
MAT,3
EN,1336,2579,2578,2604,2605,2581,2580,2606,2607
EN,1337,2578,2228,2231,2604,2580,2582,2608,2606
MAT,2
EN,1338,2228,2229,2230,2231,2582,2583,2609,2608
MAT,3
EN,1339,2229,2584,2610,2230,2583,2585,2611,2609
EN,1340,2584,2586,2612,2610,2585,2587,2613,2611
EN,1341,2586,2588,2614,2612,2587,2589,2615,2613
EN,1342,2588,2590,2616,2614,2589,2591,2617,2615
EN,1343,2590,2592,2618,2616,2591,2593,2619,2617
EN,1344,2592,2232,2235,2618,2593,2594,2620,2619
MAT,2
EN,1345,2232,2233,2234,2235,2594,2595,2621,2620
MAT,3
EN,1346,2233,2596,2622,2234,2595,2597,2623,2621
EN,1347,2596,2598,2624,2622,2597,2599,2625,2623
MAT,1
EN,1348,2225,2224,2236,2237,2601,2600,2626,2627
EN,1349,2227,2226,2238,2239,2603,2602,2628,2629
MAT,3
EN,1350,2605,2604,2246,2244,2607,2606,2630,2631
EN,1351,2604,2231,2632,2246,2606,2608,2633,2630
EN,1352,2231,2230,2634,2632,2608,2609,2635,2633
EN,1353,2230,2610,2636,2634,2609,2611,2637,2635
EN,1354,2610,2612,2638,2636,2611,2613,2639,2637
EN,1355,2612,2614,2640,2638,2613,2615,2641,2639
EN,1356,2614,2616,2642,2640,2615,2617,2643,2641
EN,1357,2616,2618,2644,2642,2617,2619,2645,2643
EN,1358,2618,2235,2646,2644,2619,2620,2647,2645
EN,1359,2235,2234,2648,2646,2620,2621,2649,2647
EN,1360,2234,2622,2248,2648,2621,2623,2650,2649
EN,1361,2622,2624,2249,2248,2623,2625,2651,2650
MAT,1
EN,1362,2237,2236,2240,2241,2627,2626,2652,2653
EN,1363,2239,2238,2242,2243,2629,2628,2654,2655
MAT,2
EN,1364,2238,2244,2245,2242,2628,2631,2656,2654
EN,1365,2244,2246,2247,2245,2631,2630,2657,2656
MAT,3
EN,1366,2246,2632,2658,2247,2630,2633,2659,2657
EN,1367,2632,2634,2660,2658,2633,2635,2661,2659
EN,1368,2634,2636,2662,2660,2635,2637,2663,2661
EN,1369,2636,2638,2664,2662,2637,2639,2665,2663
EN,1370,2638,2640,2666,2664,2639,2641,2667,2665
EN,1371,2640,2642,2668,2666,2641,2643,2669,2667
EN,1372,2642,2644,2670,2668,2643,2645,2671,2669
EN,1373,2644,2646,2672,2670,2645,2647,2673,2671
EN,1374,2646,2648,2674,2672,2647,2649,2675,2673
EN,1375,2648,2248,2251,2674,2649,2650,2676,2675
MAT,2
EN,1376,2248,2249,2250,2251,2650,2651,2677,2676
EN,1377,2249,2241,2252,2250,2651,2653,2678,2677
MAT,1
EN,1378,2241,2240,2253,2252,2653,2652,2679,2678
EN,1379,2243,2242,2254,2255,2655,2654,2680,2681
MAT,2
EN,1380,2242,2245,2256,2254,2654,2656,2682,2680
EN,1381,2245,2247,2257,2256,2656,2657,2683,2682
EN,1382,2251,2250,2258,2259,2676,2677,2684,2685
EN,1383,2250,2252,2260,2258,2677,2678,2686,2684
MAT,1
EN,1384,2252,2253,2261,2260,2678,2679,2687,2686
EN,1385,2255,2254,2262,2263,2681,2680,2688,2689
EN,1386,2254,2256,2264,2262,2680,2682,2690,2688
EN,1387,2256,2257,2265,2264,2682,2683,2691,2690
EN,1388,2257,2266,2267,2265,2683,2692,2693,2691
EN,1389,2266,2268,2269,2267,2692,2694,2695,2693
EN,1390,2268,2270,2271,2269,2694,2696,2697,2695
EN,1391,2270,2272,2273,2271,2696,2698,2699,2697
EN,1392,2272,2274,2275,2273,2698,2700,2701,2699
EN,1393,2274,2276,2277,2275,2700,2702,2703,2701
EN,1394,2276,2278,2279,2277,2702,2704,2705,2703
EN,1395,2278,2280,2281,2279,2704,2706,2707,2705
EN,1396,2280,2282,2283,2281,2706,2708,2709,2707
EN,1397,2282,2259,2284,2283,2708,2685,2710,2709
EN,1398,2259,2258,2285,2284,2685,2684,2711,2710
EN,1399,2258,2260,2286,2285,2684,2686,2712,2711
EN,1400,2260,2261,2287,2286,2686,2687,2713,2712
EN,1401,2288,2289,2290,2291,2714,2715,2716,2717
EN,1402,2289,2292,2293,2290,2715,2718,2719,2716
EN,1403,2292,2294,2295,2293,2718,2720,2721,2719
EN,1404,2294,2296,2297,2295,2720,2722,2723,2721
EN,1405,2296,2298,2299,2297,2722,2724,2725,2723
EN,1406,2298,2300,2301,2299,2724,2726,2727,2725
EN,1407,2300,2302,2303,2301,2726,2728,2729,2727
EN,1408,2302,2304,2305,2303,2728,2730,2731,2729
EN,1409,2304,2306,2307,2305,2730,2732,2733,2731
EN,1410,2306,2308,2309,2307,2732,2734,2735,2733
EN,1411,2308,2310,2311,2309,2734,2736,2737,2735
EN,1412,2310,2312,2313,2311,2736,2738,2739,2737
EN,1413,2312,2314,2315,2313,2738,2740,2741,2739
EN,1414,2314,2316,2317,2315,2740,2742,2743,2741
EN,1415,2316,2318,2319,2317,2742,2744,2745,2743
EN,1416,2318,2320,2321,2319,2744,2746,2747,2745
EN,1417,2291,2290,2322,2323,2717,2716,2748,2749
MAT,2
EN,1418,2290,2293,2324,2322,2716,2719,2750,2748
EN,1419,2293,2295,2325,2324,2719,2721,2751,2750
EN,1420,2315,2317,2326,2327,2741,2743,2752,2753
EN,1421,2317,2319,2328,2326,2743,2745,2754,2752
MAT,1
EN,1422,2319,2321,2329,2328,2745,2747,2755,2754
EN,1423,2323,2322,2330,2331,2749,2748,2756,2757
MAT,2
EN,1424,2322,2324,2332,2330,2748,2750,2758,2756
EN,1425,2324,2325,2333,2332,2750,2751,2759,2758
EN,1426,2327,2326,2371,2370,2753,2752,2760,2761
EN,1427,2326,2328,2372,2371,2752,2754,2762,2760
MAT,1
EN,1428,2328,2329,2373,2372,2754,2755,2763,2762
EN,1429,2331,2330,2374,2375,2757,2756,2764,2765
EN,1430,2372,2373,2398,2399,2762,2763,2766,2767
EN,1431,2375,2374,2400,2401,2765,2764,2768,2769
MAT,2
EN,1432,2380,2381,2407,2406,2770,2771,2772,2773
EN,1433,2392,2393,2419,2418,2774,2775,2776,2777
MAT,1
EN,1434,2399,2398,2424,2425,2767,2766,2778,2779
EN,1435,2401,2400,2426,2427,2769,2768,2780,2781
EN,1436,2425,2424,2454,2455,2779,2778,2782,2783
EN,1437,2427,2426,2456,2457,2781,2780,2784,2785
EN,1438,2455,2454,2484,2485,2783,2782,2786,2787
EN,1439,2457,2456,2486,2487,2785,2784,2788,2789
EN,1440,2485,2484,2514,2515,2787,2786,2790,2791
EN,1441,2487,2486,2516,2517,2789,2788,2792,2793
EN,1442,2515,2514,2544,2545,2791,2790,2794,2795
EN,1443,2517,2516,2546,2547,2793,2792,2796,2797
EN,1444,2545,2544,2574,2575,2795,2794,2798,2799
EN,1445,2547,2546,2576,2577,2797,2796,2800,2801
EN,1446,2575,2574,2600,2601,2799,2798,2802,2803
EN,1447,2577,2576,2602,2603,2801,2800,2804,2805
MAT,2
EN,1448,2582,2583,2609,2608,2806,2807,2808,2809
EN,1449,2594,2595,2621,2620,2810,2811,2812,2813
MAT,1
EN,1450,2601,2600,2626,2627,2803,2802,2814,2815
EN,1451,2603,2602,2628,2629,2805,2804,2816,2817
EN,1452,2627,2626,2652,2653,2815,2814,2818,2819
EN,1453,2629,2628,2654,2655,2817,2816,2820,2821
MAT,2
EN,1454,2628,2631,2656,2654,2816,2822,2823,2820
EN,1455,2631,2630,2657,2656,2822,2824,2825,2823
EN,1456,2650,2651,2677,2676,2826,2827,2828,2829
EN,1457,2651,2653,2678,2677,2827,2819,2830,2828
MAT,1
EN,1458,2653,2652,2679,2678,2819,2818,2831,2830
EN,1459,2655,2654,2680,2681,2821,2820,2832,2833
MAT,2
EN,1460,2654,2656,2682,2680,2820,2823,2834,2832
EN,1461,2656,2657,2683,2682,2823,2825,2835,2834
EN,1462,2676,2677,2684,2685,2829,2828,2836,2837
EN,1463,2677,2678,2686,2684,2828,2830,2838,2836
MAT,1
EN,1464,2678,2679,2687,2686,2830,2831,2839,2838
EN,1465,2681,2680,2688,2689,2833,2832,2840,2841
EN,1466,2680,2682,2690,2688,2832,2834,2842,2840
EN,1467,2682,2683,2691,2690,2834,2835,2843,2842
EN,1468,2683,2692,2693,2691,2835,2844,2845,2843
EN,1469,2692,2694,2695,2693,2844,2846,2847,2845
EN,1470,2694,2696,2697,2695,2846,2848,2849,2847
EN,1471,2696,2698,2699,2697,2848,2850,2851,2849
EN,1472,2698,2700,2701,2699,2850,2852,2853,2851
EN,1473,2700,2702,2703,2701,2852,2854,2855,2853
EN,1474,2702,2704,2705,2703,2854,2856,2857,2855
EN,1475,2704,2706,2707,2705,2856,2858,2859,2857
EN,1476,2706,2708,2709,2707,2858,2860,2861,2859
EN,1477,2708,2685,2710,2709,2860,2837,2862,2861
EN,1478,2685,2684,2711,2710,2837,2836,2863,2862
EN,1479,2684,2686,2712,2711,2836,2838,2864,2863
EN,1480,2686,2687,2713,2712,2838,2839,2865,2864
EN,1481,2714,2715,2716,2717,2866,2867,2868,2869
EN,1482,2715,2718,2719,2716,2867,2870,2871,2868
EN,1483,2718,2720,2721,2719,2870,2872,2873,2871
EN,1484,2720,2722,2723,2721,2872,2874,2875,2873
EN,1485,2722,2724,2725,2723,2874,2876,2877,2875
EN,1486,2724,2726,2727,2725,2876,2878,2879,2877
EN,1487,2726,2728,2729,2727,2878,2880,2881,2879
EN,1488,2728,2730,2731,2729,2880,2882,2883,2881
EN,1489,2730,2732,2733,2731,2882,2884,2885,2883
EN,1490,2732,2734,2735,2733,2884,2886,2887,2885
EN,1491,2734,2736,2737,2735,2886,2888,2889,2887
EN,1492,2736,2738,2739,2737,2888,2890,2891,2889
EN,1493,2738,2740,2741,2739,2890,2892,2893,2891
EN,1494,2740,2742,2743,2741,2892,2894,2895,2893
EN,1495,2742,2744,2745,2743,2894,2896,2897,2895
EN,1496,2744,2746,2747,2745,2896,2898,2899,2897
EN,1497,2717,2716,2748,2749,2869,2868,2900,2901
MAT,2
EN,1498,2716,2719,2750,2748,2868,2871,2902,2900
EN,1499,2719,2721,2751,2750,2871,2873,2903,2902
EN,1500,2741,2743,2752,2753,2893,2895,2904,2905
EN,1501,2743,2745,2754,2752,2895,2897,2906,2904
MAT,1
EN,1502,2745,2747,2755,2754,2897,2899,2907,2906
EN,1503,2749,2748,2756,2757,2901,2900,2908,2909
MAT,2
EN,1504,2748,2750,2758,2756,2900,2902,2910,2908
EN,1505,2750,2751,2759,2758,2902,2903,2911,2910
MAT,3
EN,1506,2751,2912,2913,2759,2903,2914,2915,2911
EN,1507,2912,2916,2917,2913,2914,2918,2919,2915
EN,1508,2916,2920,2921,2917,2918,2922,2923,2919
EN,1509,2920,2924,2925,2921,2922,2926,2927,2923
EN,1510,2924,2928,2929,2925,2926,2930,2931,2927
EN,1511,2928,2932,2933,2929,2930,2934,2935,2931
EN,1512,2932,2936,2937,2933,2934,2938,2939,2935
EN,1513,2936,2940,2941,2937,2938,2942,2943,2939
EN,1514,2940,2944,2945,2941,2942,2946,2947,2943
EN,1515,2944,2753,2761,2945,2946,2905,2948,2947
MAT,2
EN,1516,2753,2752,2760,2761,2905,2904,2949,2948
EN,1517,2752,2754,2762,2760,2904,2906,2950,2949
MAT,1
EN,1518,2754,2755,2763,2762,2906,2907,2951,2950
EN,1519,2757,2756,2764,2765,2909,2908,2952,2953
MAT,3
EN,1520,2758,2759,2954,2955,2910,2911,2956,2957
EN,1521,2759,2913,2770,2954,2911,2915,2958,2956
EN,1522,2913,2917,2771,2770,2915,2919,2959,2958
EN,1523,2917,2921,2960,2771,2919,2923,2961,2959
EN,1524,2921,2925,2962,2960,2923,2927,2963,2961
EN,1525,2925,2929,2964,2962,2927,2931,2965,2963
EN,1526,2929,2933,2966,2964,2931,2935,2967,2965
EN,1527,2933,2937,2968,2966,2935,2939,2969,2967
EN,1528,2937,2941,2774,2968,2939,2943,2970,2969
EN,1529,2941,2945,2775,2774,2943,2947,2971,2970
EN,1530,2945,2761,2972,2775,2947,2948,2973,2971
EN,1531,2761,2760,2974,2972,2948,2949,2975,2973
MAT,1
EN,1532,2762,2763,2766,2767,2950,2951,2976,2977
EN,1533,2765,2764,2768,2769,2953,2952,2978,2979
MAT,3
EN,1534,2955,2954,2980,2981,2957,2956,2982,2983
EN,1535,2954,2770,2773,2980,2956,2958,2984,2982
MAT,2
EN,1536,2770,2771,2772,2773,2958,2959,2985,2984
MAT,3
EN,1537,2771,2960,2986,2772,2959,2961,2987,2985
EN,1538,2960,2962,2988,2986,2961,2963,2989,2987
EN,1539,2962,2964,2990,2988,2963,2965,2991,2989
EN,1540,2964,2966,2992,2990,2965,2967,2993,2991
EN,1541,2966,2968,2994,2992,2967,2969,2995,2993
EN,1542,2968,2774,2777,2994,2969,2970,2996,2995
MAT,2
EN,1543,2774,2775,2776,2777,2970,2971,2997,2996
MAT,3
EN,1544,2775,2972,2998,2776,2971,2973,2999,2997
EN,1545,2972,2974,3000,2998,2973,2975,3001,2999
MAT,1
EN,1546,2767,2766,2778,2779,2977,2976,3002,3003
EN,1547,2769,2768,2780,2781,2979,2978,3004,3005
MAT,3
EN,1548,2981,2980,3006,3007,2983,2982,3008,3009
EN,1549,2980,2773,3010,3006,2982,2984,3011,3008
EN,1550,2773,2772,3012,3010,2984,2985,3013,3011
EN,1551,2772,2986,3014,3012,2985,2987,3015,3013
EN,1552,2986,2988,3016,3014,2987,2989,3017,3015
EN,1553,2988,2990,3018,3016,2989,2991,3019,3017
EN,1554,2990,2992,3020,3018,2991,2993,3021,3019
EN,1555,2992,2994,3022,3020,2993,2995,3023,3021
EN,1556,2994,2777,3024,3022,2995,2996,3025,3023
EN,1557,2777,2776,3026,3024,2996,2997,3027,3025
EN,1558,2776,2998,3028,3026,2997,2999,3029,3027
EN,1559,2998,3000,3030,3028,2999,3001,3031,3029
MAT,1
EN,1560,2779,2778,2782,2783,3003,3002,3032,3033
EN,1561,2781,2780,2784,2785,3005,3004,3034,3035
MAT,3
EN,1562,3007,3006,3036,3037,3009,3008,3038,3039
EN,1563,3006,3010,3040,3036,3008,3011,3041,3038
EN,1564,3010,3012,3042,3040,3011,3013,3043,3041
EN,1565,3012,3014,3044,3042,3013,3015,3045,3043
EN,1566,3014,3016,3046,3044,3015,3017,3047,3045
EN,1567,3016,3018,3048,3046,3017,3019,3049,3047
EN,1568,3018,3020,3050,3048,3019,3021,3051,3049
EN,1569,3020,3022,3052,3050,3021,3023,3053,3051
EN,1570,3022,3024,3054,3052,3023,3025,3055,3053
EN,1571,3024,3026,3056,3054,3025,3027,3057,3055
EN,1572,3026,3028,3058,3056,3027,3029,3059,3057
EN,1573,3028,3030,3060,3058,3029,3031,3061,3059
MAT,1
EN,1574,2783,2782,2786,2787,3033,3032,3062,3063
EN,1575,2785,2784,2788,2789,3035,3034,3064,3065
MAT,3
EN,1576,3037,3036,3066,3067,3039,3038,3068,3069
EN,1577,3036,3040,3070,3066,3038,3041,3071,3068
EN,1578,3040,3042,3072,3070,3041,3043,3073,3071
EN,1579,3042,3044,3074,3072,3043,3045,3075,3073
EN,1580,3044,3046,3076,3074,3045,3047,3077,3075
EN,1581,3046,3048,3078,3076,3047,3049,3079,3077
EN,1582,3048,3050,3080,3078,3049,3051,3081,3079
EN,1583,3050,3052,3082,3080,3051,3053,3083,3081
EN,1584,3052,3054,3084,3082,3053,3055,3085,3083
EN,1585,3054,3056,3086,3084,3055,3057,3087,3085
EN,1586,3056,3058,3088,3086,3057,3059,3089,3087
EN,1587,3058,3060,3090,3088,3059,3061,3091,3089
MAT,1
EN,1588,2787,2786,2790,2791,3063,3062,3092,3093
EN,1589,2789,2788,2792,2793,3065,3064,3094,3095
MAT,3
EN,1590,3067,3066,3096,3097,3069,3068,3098,3099
EN,1591,3066,3070,3100,3096,3068,3071,3101,3098
EN,1592,3070,3072,3102,3100,3071,3073,3103,3101
EN,1593,3072,3074,3104,3102,3073,3075,3105,3103
EN,1594,3074,3076,3106,3104,3075,3077,3107,3105
EN,1595,3076,3078,3108,3106,3077,3079,3109,3107
EN,1596,3078,3080,3110,3108,3079,3081,3111,3109
EN,1597,3080,3082,3112,3110,3081,3083,3113,3111
EN,1598,3082,3084,3114,3112,3083,3085,3115,3113
EN,1599,3084,3086,3116,3114,3085,3087,3117,3115
EN,1600,3086,3088,3118,3116,3087,3089,3119,3117
EN,1601,3088,3090,3120,3118,3089,3091,3121,3119
MAT,1
EN,1602,2791,2790,2794,2795,3093,3092,3122,3123
EN,1603,2793,2792,2796,2797,3095,3094,3124,3125
MAT,3
EN,1604,3097,3096,3126,3127,3099,3098,3128,3129
EN,1605,3096,3100,3130,3126,3098,3101,3131,3128
EN,1606,3100,3102,3132,3130,3101,3103,3133,3131
EN,1607,3102,3104,3134,3132,3103,3105,3135,3133
EN,1608,3104,3106,3136,3134,3105,3107,3137,3135
EN,1609,3106,3108,3138,3136,3107,3109,3139,3137
EN,1610,3108,3110,3140,3138,3109,3111,3141,3139
EN,1611,3110,3112,3142,3140,3111,3113,3143,3141
EN,1612,3112,3114,3144,3142,3113,3115,3145,3143
EN,1613,3114,3116,3146,3144,3115,3117,3147,3145
EN,1614,3116,3118,3148,3146,3117,3119,3149,3147
EN,1615,3118,3120,3150,3148,3119,3121,3151,3149
MAT,1
EN,1616,2795,2794,2798,2799,3123,3122,3152,3153
EN,1617,2797,2796,2800,2801,3125,3124,3154,3155
MAT,3
EN,1618,3127,3126,3156,3157,3129,3128,3158,3159
EN,1619,3126,3130,2806,3156,3128,3131,3160,3158
EN,1620,3130,3132,2807,2806,3131,3133,3161,3160
EN,1621,3132,3134,3162,2807,3133,3135,3163,3161
EN,1622,3134,3136,3164,3162,3135,3137,3165,3163
EN,1623,3136,3138,3166,3164,3137,3139,3167,3165
EN,1624,3138,3140,3168,3166,3139,3141,3169,3167
EN,1625,3140,3142,3170,3168,3141,3143,3171,3169
EN,1626,3142,3144,2810,3170,3143,3145,3172,3171
EN,1627,3144,3146,2811,2810,3145,3147,3173,3172
EN,1628,3146,3148,3174,2811,3147,3149,3175,3173
EN,1629,3148,3150,3176,3174,3149,3151,3177,3175
MAT,1
EN,1630,2799,2798,2802,2803,3153,3152,3178,3179
EN,1631,2801,2800,2804,2805,3155,3154,3180,3181
MAT,3
EN,1632,3157,3156,3182,3183,3159,3158,3184,3185
EN,1633,3156,2806,2809,3182,3158,3160,3186,3184
MAT,2
EN,1634,2806,2807,2808,2809,3160,3161,3187,3186
MAT,3
EN,1635,2807,3162,3188,2808,3161,3163,3189,3187
EN,1636,3162,3164,3190,3188,3163,3165,3191,3189
EN,1637,3164,3166,3192,3190,3165,3167,3193,3191
EN,1638,3166,3168,3194,3192,3167,3169,3195,3193
EN,1639,3168,3170,3196,3194,3169,3171,3197,3195
EN,1640,3170,2810,2813,3196,3171,3172,3198,3197
MAT,2
EN,1641,2810,2811,2812,2813,3172,3173,3199,3198
MAT,3
EN,1642,2811,3174,3200,2812,3173,3175,3201,3199
EN,1643,3174,3176,3202,3200,3175,3177,3203,3201
MAT,1
EN,1644,2803,2802,2814,2815,3179,3178,3204,3205
EN,1645,2805,2804,2816,2817,3181,3180,3206,3207
MAT,3
EN,1646,3183,3182,2824,2822,3185,3184,3208,3209
EN,1647,3182,2809,3210,2824,3184,3186,3211,3208
EN,1648,2809,2808,3212,3210,3186,3187,3213,3211
EN,1649,2808,3188,3214,3212,3187,3189,3215,3213
EN,1650,3188,3190,3216,3214,3189,3191,3217,3215
EN,1651,3190,3192,3218,3216,3191,3193,3219,3217
EN,1652,3192,3194,3220,3218,3193,3195,3221,3219
EN,1653,3194,3196,3222,3220,3195,3197,3223,3221
EN,1654,3196,2813,3224,3222,3197,3198,3225,3223
EN,1655,2813,2812,3226,3224,3198,3199,3227,3225
EN,1656,2812,3200,2826,3226,3199,3201,3228,3227
EN,1657,3200,3202,2827,2826,3201,3203,3229,3228
MAT,1
EN,1658,2815,2814,2818,2819,3205,3204,3230,3231
EN,1659,2817,2816,2820,2821,3207,3206,3232,3233
MAT,2
EN,1660,2816,2822,2823,2820,3206,3209,3234,3232
EN,1661,2822,2824,2825,2823,3209,3208,3235,3234
MAT,3
EN,1662,2824,3210,3236,2825,3208,3211,3237,3235
EN,1663,3210,3212,3238,3236,3211,3213,3239,3237
EN,1664,3212,3214,3240,3238,3213,3215,3241,3239
EN,1665,3214,3216,3242,3240,3215,3217,3243,3241
EN,1666,3216,3218,3244,3242,3217,3219,3245,3243
EN,1667,3218,3220,3246,3244,3219,3221,3247,3245
EN,1668,3220,3222,3248,3246,3221,3223,3249,3247
EN,1669,3222,3224,3250,3248,3223,3225,3251,3249
EN,1670,3224,3226,3252,3250,3225,3227,3253,3251
EN,1671,3226,2826,2829,3252,3227,3228,3254,3253
MAT,2
EN,1672,2826,2827,2828,2829,3228,3229,3255,3254
EN,1673,2827,2819,2830,2828,3229,3231,3256,3255
MAT,1
EN,1674,2819,2818,2831,2830,3231,3230,3257,3256
EN,1675,2821,2820,2832,2833,3233,3232,3258,3259
MAT,2
EN,1676,2820,2823,2834,2832,3232,3234,3260,3258
EN,1677,2823,2825,2835,2834,3234,3235,3261,3260
EN,1678,2829,2828,2836,2837,3254,3255,3262,3263
EN,1679,2828,2830,2838,2836,3255,3256,3264,3262
MAT,1
EN,1680,2830,2831,2839,2838,3256,3257,3265,3264
EN,1681,2833,2832,2840,2841,3259,3258,3266,3267
EN,1682,2832,2834,2842,2840,3258,3260,3268,3266
EN,1683,2834,2835,2843,2842,3260,3261,3269,3268
EN,1684,2835,2844,2845,2843,3261,3270,3271,3269
EN,1685,2844,2846,2847,2845,3270,3272,3273,3271
EN,1686,2846,2848,2849,2847,3272,3274,3275,3273
EN,1687,2848,2850,2851,2849,3274,3276,3277,3275
EN,1688,2850,2852,2853,2851,3276,3278,3279,3277
EN,1689,2852,2854,2855,2853,3278,3280,3281,3279
EN,1690,2854,2856,2857,2855,3280,3282,3283,3281
EN,1691,2856,2858,2859,2857,3282,3284,3285,3283
EN,1692,2858,2860,2861,2859,3284,3286,3287,3285
EN,1693,2860,2837,2862,2861,3286,3263,3288,3287
EN,1694,2837,2836,2863,2862,3263,3262,3289,3288
EN,1695,2836,2838,2864,2863,3262,3264,3290,3289
EN,1696,2838,2839,2865,2864,3264,3265,3291,3290
EN,1697,2866,2867,2868,2869,3292,3293,3294,3295
EN,1698,2867,2870,2871,2868,3293,3296,3297,3294
EN,1699,2870,2872,2873,2871,3296,3298,3299,3297
EN,1700,2872,2874,2875,2873,3298,3300,3301,3299
EN,1701,2874,2876,2877,2875,3300,3302,3303,3301
EN,1702,2876,2878,2879,2877,3302,3304,3305,3303
EN,1703,2878,2880,2881,2879,3304,3306,3307,3305
EN,1704,2880,2882,2883,2881,3306,3308,3309,3307
EN,1705,2882,2884,2885,2883,3308,3310,3311,3309
EN,1706,2884,2886,2887,2885,3310,3312,3313,3311
EN,1707,2886,2888,2889,2887,3312,3314,3315,3313
EN,1708,2888,2890,2891,2889,3314,3316,3317,3315
EN,1709,2890,2892,2893,2891,3316,3318,3319,3317
EN,1710,2892,2894,2895,2893,3318,3320,3321,3319
EN,1711,2894,2896,2897,2895,3320,3322,3323,3321
EN,1712,2896,2898,2899,2897,3322,3324,3325,3323
EN,1713,2869,2868,2900,2901,3295,3294,3326,3327
MAT,2
EN,1714,2868,2871,2902,2900,3294,3297,3328,3326
EN,1715,2871,2873,2903,2902,3297,3299,3329,3328
EN,1716,2893,2895,2904,2905,3319,3321,3330,3331
EN,1717,2895,2897,2906,2904,3321,3323,3332,3330
MAT,1
EN,1718,2897,2899,2907,2906,3323,3325,3333,3332
EN,1719,2901,2900,2908,2909,3327,3326,3334,3335
MAT,2
EN,1720,2900,2902,2910,2908,3326,3328,3336,3334
EN,1721,2902,2903,2911,2910,3328,3329,3337,3336
EN,1722,2905,2904,2949,2948,3331,3330,3338,3339
EN,1723,2904,2906,2950,2949,3330,3332,3340,3338
MAT,1
EN,1724,2906,2907,2951,2950,3332,3333,3341,3340
EN,1725,2909,2908,2952,2953,3335,3334,3342,3343
EN,1726,2950,2951,2976,2977,3340,3341,3344,3345
EN,1727,2953,2952,2978,2979,3343,3342,3346,3347
MAT,2
EN,1728,2958,2959,2985,2984,3348,3349,3350,3351
EN,1729,2970,2971,2997,2996,3352,3353,3354,3355
MAT,1
EN,1730,2977,2976,3002,3003,3345,3344,3356,3357
EN,1731,2979,2978,3004,3005,3347,3346,3358,3359
EN,1732,3003,3002,3032,3033,3357,3356,3360,3361
EN,1733,3005,3004,3034,3035,3359,3358,3362,3363
EN,1734,3033,3032,3062,3063,3361,3360,3364,3365
EN,1735,3035,3034,3064,3065,3363,3362,3366,3367
EN,1736,3063,3062,3092,3093,3365,3364,3368,3369
EN,1737,3065,3064,3094,3095,3367,3366,3370,3371
EN,1738,3093,3092,3122,3123,3369,3368,3372,3373
EN,1739,3095,3094,3124,3125,3371,3370,3374,3375
EN,1740,3123,3122,3152,3153,3373,3372,3376,3377
EN,1741,3125,3124,3154,3155,3375,3374,3378,3379
EN,1742,3153,3152,3178,3179,3377,3376,3380,3381
EN,1743,3155,3154,3180,3181,3379,3378,3382,3383
MAT,2
EN,1744,3160,3161,3187,3186,3384,3385,3386,3387
EN,1745,3172,3173,3199,3198,3388,3389,3390,3391
MAT,1
EN,1746,3179,3178,3204,3205,3381,3380,3392,3393
EN,1747,3181,3180,3206,3207,3383,3382,3394,3395
EN,1748,3205,3204,3230,3231,3393,3392,3396,3397
EN,1749,3207,3206,3232,3233,3395,3394,3398,3399
MAT,2
EN,1750,3206,3209,3234,3232,3394,3400,3401,3398
EN,1751,3209,3208,3235,3234,3400,3402,3403,3401
EN,1752,3228,3229,3255,3254,3404,3405,3406,3407
EN,1753,3229,3231,3256,3255,3405,3397,3408,3406
MAT,1
EN,1754,3231,3230,3257,3256,3397,3396,3409,3408
EN,1755,3233,3232,3258,3259,3399,3398,3410,3411
MAT,2
EN,1756,3232,3234,3260,3258,3398,3401,3412,3410
EN,1757,3234,3235,3261,3260,3401,3403,3413,3412
EN,1758,3254,3255,3262,3263,3407,3406,3414,3415
EN,1759,3255,3256,3264,3262,3406,3408,3416,3414
MAT,1
EN,1760,3256,3257,3265,3264,3408,3409,3417,3416
EN,1761,3259,3258,3266,3267,3411,3410,3418,3419
EN,1762,3258,3260,3268,3266,3410,3412,3420,3418
EN,1763,3260,3261,3269,3268,3412,3413,3421,3420
EN,1764,3261,3270,3271,3269,3413,3422,3423,3421
EN,1765,3270,3272,3273,3271,3422,3424,3425,3423
EN,1766,3272,3274,3275,3273,3424,3426,3427,3425
EN,1767,3274,3276,3277,3275,3426,3428,3429,3427
EN,1768,3276,3278,3279,3277,3428,3430,3431,3429
EN,1769,3278,3280,3281,3279,3430,3432,3433,3431
EN,1770,3280,3282,3283,3281,3432,3434,3435,3433
EN,1771,3282,3284,3285,3283,3434,3436,3437,3435
EN,1772,3284,3286,3287,3285,3436,3438,3439,3437
EN,1773,3286,3263,3288,3287,3438,3415,3440,3439
EN,1774,3263,3262,3289,3288,3415,3414,3441,3440
EN,1775,3262,3264,3290,3289,3414,3416,3442,3441
EN,1776,3264,3265,3291,3290,3416,3417,3443,3442
EN,1777,3292,3293,3294,3295,3444,3445,3446,3447
EN,1778,3293,3296,3297,3294,3445,3448,3449,3446
EN,1779,3296,3298,3299,3297,3448,3450,3451,3449
EN,1780,3298,3300,3301,3299,3450,3452,3453,3451
EN,1781,3300,3302,3303,3301,3452,3454,3455,3453
EN,1782,3302,3304,3305,3303,3454,3456,3457,3455
EN,1783,3304,3306,3307,3305,3456,3458,3459,3457
EN,1784,3306,3308,3309,3307,3458,3460,3461,3459
EN,1785,3308,3310,3311,3309,3460,3462,3463,3461
EN,1786,3310,3312,3313,3311,3462,3464,3465,3463
EN,1787,3312,3314,3315,3313,3464,3466,3467,3465
EN,1788,3314,3316,3317,3315,3466,3468,3469,3467
EN,1789,3316,3318,3319,3317,3468,3470,3471,3469
EN,1790,3318,3320,3321,3319,3470,3472,3473,3471
EN,1791,3320,3322,3323,3321,3472,3474,3475,3473
EN,1792,3322,3324,3325,3323,3474,3476,3477,3475
EN,1793,3295,3294,3326,3327,3447,3446,3478,3479
MAT,2
EN,1794,3294,3297,3328,3326,3446,3449,3480,3478
EN,1795,3297,3299,3329,3328,3449,3451,3481,3480
EN,1796,3299,3301,3482,3329,3451,3453,3483,3481
EN,1797,3301,3303,3484,3482,3453,3455,3485,3483
EN,1798,3303,3305,3486,3484,3455,3457,3487,3485
EN,1799,3305,3307,3488,3486,3457,3459,3489,3487
EN,1800,3307,3309,3490,3488,3459,3461,3491,3489
EN,1801,3309,3311,3492,3490,3461,3463,3493,3491
EN,1802,3311,3313,3494,3492,3463,3465,3495,3493
EN,1803,3313,3315,3496,3494,3465,3467,3497,3495
EN,1804,3315,3317,3498,3496,3467,3469,3499,3497
EN,1805,3317,3319,3331,3498,3469,3471,3500,3499
EN,1806,3319,3321,3330,3331,3471,3473,3501,3500
EN,1807,3321,3323,3332,3330,3473,3475,3502,3501
MAT,1
EN,1808,3323,3325,3333,3332,3475,3477,3503,3502
EN,1809,3327,3326,3334,3335,3479,3478,3504,3505
MAT,2
EN,1810,3326,3328,3336,3334,3478,3480,3506,3504
EN,1811,3328,3329,3337,3336,3480,3481,3507,3506
EN,1812,3329,3482,3508,3337,3481,3483,3509,3507
EN,1813,3482,3484,3510,3508,3483,3485,3511,3509
EN,1814,3484,3486,3512,3510,3485,3487,3513,3511
EN,1815,3486,3488,3514,3512,3487,3489,3515,3513
EN,1816,3488,3490,3516,3514,3489,3491,3517,3515
EN,1817,3490,3492,3518,3516,3491,3493,3519,3517
EN,1818,3492,3494,3520,3518,3493,3495,3521,3519
EN,1819,3494,3496,3522,3520,3495,3497,3523,3521
EN,1820,3496,3498,3524,3522,3497,3499,3525,3523
EN,1821,3498,3331,3339,3524,3499,3500,3526,3525
EN,1822,3331,3330,3338,3339,3500,3501,3527,3526
EN,1823,3330,3332,3340,3338,3501,3502,3528,3527
MAT,1
EN,1824,3332,3333,3341,3340,3502,3503,3529,3528
EN,1825,3335,3334,3342,3343,3505,3504,3530,3531
MAT,2
EN,1826,3334,3336,3532,3342,3504,3506,3533,3530
EN,1827,3336,3337,3534,3532,3506,3507,3535,3533
EN,1828,3339,3338,3536,3537,3526,3527,3538,3539
EN,1829,3338,3340,3345,3536,3527,3528,3540,3538
MAT,1
EN,1830,3340,3341,3344,3345,3528,3529,3541,3540
EN,1831,3343,3342,3346,3347,3531,3530,3542,3543
MAT,2
EN,1832,3342,3532,3544,3346,3530,3533,3545,3542
EN,1833,3532,3534,3546,3544,3533,3535,3547,3545
EN,1834,3348,3349,3350,3351,3548,3549,3550,3551
EN,1835,3352,3353,3354,3355,3552,3553,3554,3555
EN,1836,3537,3536,3556,3557,3539,3538,3558,3559
EN,1837,3536,3345,3357,3556,3538,3540,3560,3558
MAT,1
EN,1838,3345,3344,3356,3357,3540,3541,3561,3560
EN,1839,3347,3346,3358,3359,3543,3542,3562,3563
MAT,2
EN,1840,3346,3544,3564,3358,3542,3545,3565,3562
EN,1841,3544,3546,3566,3564,3545,3547,3567,3565
EN,1842,3557,3556,3568,3569,3559,3558,3570,3571
EN,1843,3556,3357,3361,3568,3558,3560,3572,3570
MAT,1
EN,1844,3357,3356,3360,3361,3560,3561,3573,3572
EN,1845,3359,3358,3362,3363,3563,3562,3574,3575
MAT,2
EN,1846,3358,3564,3576,3362,3562,3565,3577,3574
EN,1847,3564,3566,3578,3576,3565,3567,3579,3577
EN,1848,3569,3568,3580,3581,3571,3570,3582,3583
EN,1849,3568,3361,3365,3580,3570,3572,3584,3582
MAT,1
EN,1850,3361,3360,3364,3365,3572,3573,3585,3584
EN,1851,3363,3362,3366,3367,3575,3574,3586,3587
MAT,2
EN,1852,3362,3576,3588,3366,3574,3577,3589,3586
EN,1853,3576,3578,3590,3588,3577,3579,3591,3589
EN,1854,3581,3580,3592,3593,3583,3582,3594,3595
EN,1855,3580,3365,3369,3592,3582,3584,3596,3594
MAT,1
EN,1856,3365,3364,3368,3369,3584,3585,3597,3596
EN,1857,3367,3366,3370,3371,3587,3586,3598,3599
MAT,2
EN,1858,3366,3588,3600,3370,3586,3589,3601,3598
EN,1859,3588,3590,3602,3600,3589,3591,3603,3601
EN,1860,3593,3592,3604,3605,3595,3594,3606,3607
EN,1861,3592,3369,3373,3604,3594,3596,3608,3606
MAT,1
EN,1862,3369,3368,3372,3373,3596,3597,3609,3608
EN,1863,3371,3370,3374,3375,3599,3598,3610,3611
MAT,2
EN,1864,3370,3600,3612,3374,3598,3601,3613,3610
EN,1865,3600,3602,3614,3612,3601,3603,3615,3613
EN,1866,3605,3604,3616,3617,3607,3606,3618,3619
EN,1867,3604,3373,3377,3616,3606,3608,3620,3618
MAT,1
EN,1868,3373,3372,3376,3377,3608,3609,3621,3620
EN,1869,3375,3374,3378,3379,3611,3610,3622,3623
MAT,2
EN,1870,3374,3612,3624,3378,3610,3613,3625,3622
EN,1871,3612,3614,3626,3624,3613,3615,3627,3625
EN,1872,3617,3616,3628,3629,3619,3618,3630,3631
EN,1873,3616,3377,3381,3628,3618,3620,3632,3630
MAT,1
EN,1874,3377,3376,3380,3381,3620,3621,3633,3632
EN,1875,3379,3378,3382,3383,3623,3622,3634,3635
MAT,2
EN,1876,3378,3624,3636,3382,3622,3625,3637,3634
EN,1877,3624,3626,3638,3636,3625,3627,3639,3637
EN,1878,3384,3385,3386,3387,3640,3641,3642,3643
EN,1879,3388,3389,3390,3391,3644,3645,3646,3647
EN,1880,3629,3628,3648,3649,3631,3630,3650,3651
EN,1881,3628,3381,3393,3648,3630,3632,3652,3650
MAT,1
EN,1882,3381,3380,3392,3393,3632,3633,3653,3652
EN,1883,3383,3382,3394,3395,3635,3634,3654,3655
MAT,2
EN,1884,3382,3636,3400,3394,3634,3637,3656,3654
EN,1885,3636,3638,3402,3400,3637,3639,3657,3656
EN,1886,3649,3648,3405,3404,3651,3650,3658,3659
EN,1887,3648,3393,3397,3405,3650,3652,3660,3658
MAT,1
EN,1888,3393,3392,3396,3397,3652,3653,3661,3660
EN,1889,3395,3394,3398,3399,3655,3654,3662,3663
MAT,2
EN,1890,3394,3400,3401,3398,3654,3656,3664,3662
EN,1891,3400,3402,3403,3401,3656,3657,3665,3664
EN,1892,3402,3666,3667,3403,3657,3668,3669,3665
EN,1893,3666,3670,3671,3667,3668,3672,3673,3669
EN,1894,3670,3674,3675,3671,3672,3676,3677,3673
EN,1895,3674,3678,3679,3675,3676,3680,3681,3677
EN,1896,3678,3682,3683,3679,3680,3684,3685,3681
EN,1897,3682,3686,3687,3683,3684,3688,3689,3685
EN,1898,3686,3690,3691,3687,3688,3692,3693,3689
EN,1899,3690,3694,3695,3691,3692,3696,3697,3693
EN,1900,3694,3698,3699,3695,3696,3700,3701,3697
EN,1901,3698,3404,3407,3699,3700,3659,3702,3701
EN,1902,3404,3405,3406,3407,3659,3658,3703,3702
EN,1903,3405,3397,3408,3406,3658,3660,3704,3703
MAT,1
EN,1904,3397,3396,3409,3408,3660,3661,3705,3704
EN,1905,3399,3398,3410,3411,3663,3662,3706,3707
MAT,2
EN,1906,3398,3401,3412,3410,3662,3664,3708,3706
EN,1907,3401,3403,3413,3412,3664,3665,3709,3708
EN,1908,3403,3667,3422,3413,3665,3669,3710,3709
EN,1909,3667,3671,3424,3422,3669,3673,3711,3710
EN,1910,3671,3675,3426,3424,3673,3677,3712,3711
EN,1911,3675,3679,3428,3426,3677,3681,3713,3712
EN,1912,3679,3683,3430,3428,3681,3685,3714,3713
EN,1913,3683,3687,3432,3430,3685,3689,3715,3714
EN,1914,3687,3691,3434,3432,3689,3693,3716,3715
EN,1915,3691,3695,3436,3434,3693,3697,3717,3716
EN,1916,3695,3699,3438,3436,3697,3701,3718,3717
EN,1917,3699,3407,3415,3438,3701,3702,3719,3718
EN,1918,3407,3406,3414,3415,3702,3703,3720,3719
EN,1919,3406,3408,3416,3414,3703,3704,3721,3720
MAT,1
EN,1920,3408,3409,3417,3416,3704,3705,3722,3721
EN,1921,3411,3410,3418,3419,3707,3706,3723,3724
EN,1922,3410,3412,3420,3418,3706,3708,3725,3723
EN,1923,3412,3413,3421,3420,3708,3709,3726,3725
EN,1924,3413,3422,3423,3421,3709,3710,3727,3726
EN,1925,3422,3424,3425,3423,3710,3711,3728,3727
EN,1926,3424,3426,3427,3425,3711,3712,3729,3728
EN,1927,3426,3428,3429,3427,3712,3713,3730,3729
EN,1928,3428,3430,3431,3429,3713,3714,3731,3730
EN,1929,3430,3432,3433,3431,3714,3715,3732,3731
EN,1930,3432,3434,3435,3433,3715,3716,3733,3732
EN,1931,3434,3436,3437,3435,3716,3717,3734,3733
EN,1932,3436,3438,3439,3437,3717,3718,3735,3734
EN,1933,3438,3415,3440,3439,3718,3719,3736,3735
EN,1934,3415,3414,3441,3440,3719,3720,3737,3736
EN,1935,3414,3416,3442,3441,3720,3721,3738,3737
EN,1936,3416,3417,3443,3442,3721,3722,3739,3738
EN,1937,3444,3445,3446,3447,3740,3741,3742,3743
EN,1938,3445,3448,3449,3446,3741,3744,3745,3742
EN,1939,3448,3450,3451,3449,3744,3746,3747,3745
EN,1940,3450,3452,3453,3451,3746,3748,3749,3747
EN,1941,3452,3454,3455,3453,3748,3750,3751,3749
EN,1942,3454,3456,3457,3455,3750,3752,3753,3751
EN,1943,3456,3458,3459,3457,3752,3754,3755,3753
EN,1944,3458,3460,3461,3459,3754,3756,3757,3755
EN,1945,3460,3462,3463,3461,3756,3758,3759,3757
EN,1946,3462,3464,3465,3463,3758,3760,3761,3759
EN,1947,3464,3466,3467,3465,3760,3762,3763,3761
EN,1948,3466,3468,3469,3467,3762,3764,3765,3763
EN,1949,3468,3470,3471,3469,3764,3766,3767,3765
EN,1950,3470,3472,3473,3471,3766,3768,3769,3767
EN,1951,3472,3474,3475,3473,3768,3770,3771,3769
EN,1952,3474,3476,3477,3475,3770,3772,3773,3771
EN,1953,3447,3446,3478,3479,3743,3742,3774,3775
EN,1954,3446,3449,3480,3478,3742,3745,3776,3774
EN,1955,3449,3451,3481,3480,3745,3747,3777,3776
EN,1956,3451,3453,3483,3481,3747,3749,3778,3777
EN,1957,3453,3455,3485,3483,3749,3751,3779,3778
EN,1958,3455,3457,3487,3485,3751,3753,3780,3779
EN,1959,3457,3459,3489,3487,3753,3755,3781,3780
EN,1960,3459,3461,3491,3489,3755,3757,3782,3781
EN,1961,3461,3463,3493,3491,3757,3759,3783,3782
EN,1962,3463,3465,3495,3493,3759,3761,3784,3783
EN,1963,3465,3467,3497,3495,3761,3763,3785,3784
EN,1964,3467,3469,3499,3497,3763,3765,3786,3785
EN,1965,3469,3471,3500,3499,3765,3767,3787,3786
EN,1966,3471,3473,3501,3500,3767,3769,3788,3787
EN,1967,3473,3475,3502,3501,3769,3771,3789,3788
EN,1968,3475,3477,3503,3502,3771,3773,3790,3789
EN,1969,3479,3478,3504,3505,3775,3774,3791,3792
EN,1970,3478,3480,3506,3504,3774,3776,3793,3791
EN,1971,3480,3481,3507,3506,3776,3777,3794,3793
EN,1972,3481,3483,3509,3507,3777,3778,3795,3794
EN,1973,3483,3485,3511,3509,3778,3779,3796,3795
EN,1974,3485,3487,3513,3511,3779,3780,3797,3796
EN,1975,3487,3489,3515,3513,3780,3781,3798,3797
EN,1976,3489,3491,3517,3515,3781,3782,3799,3798
EN,1977,3491,3493,3519,3517,3782,3783,3800,3799
EN,1978,3493,3495,3521,3519,3783,3784,3801,3800
EN,1979,3495,3497,3523,3521,3784,3785,3802,3801
EN,1980,3497,3499,3525,3523,3785,3786,3803,3802
EN,1981,3499,3500,3526,3525,3786,3787,3804,3803
EN,1982,3500,3501,3527,3526,3787,3788,3805,3804
EN,1983,3501,3502,3528,3527,3788,3789,3806,3805
EN,1984,3502,3503,3529,3528,3789,3790,3807,3806
EN,1985,3505,3504,3530,3531,3792,3791,3808,3809
EN,1986,3504,3506,3533,3530,3791,3793,3810,3808
EN,1987,3506,3507,3535,3533,3793,3794,3811,3810
EN,1988,3507,3509,3548,3535,3794,3795,3812,3811
EN,1989,3509,3511,3549,3548,3795,3796,3813,3812
EN,1990,3511,3513,3814,3549,3796,3797,3815,3813
EN,1991,3513,3515,3816,3814,3797,3798,3817,3815
EN,1992,3515,3517,3818,3816,3798,3799,3819,3817
EN,1993,3517,3519,3820,3818,3799,3800,3821,3819
EN,1994,3519,3521,3822,3820,3800,3801,3823,3821
EN,1995,3521,3523,3552,3822,3801,3802,3824,3823
EN,1996,3523,3525,3553,3552,3802,3803,3825,3824
EN,1997,3525,3526,3539,3553,3803,3804,3826,3825
EN,1998,3526,3527,3538,3539,3804,3805,3827,3826
EN,1999,3527,3528,3540,3538,3805,3806,3828,3827
EN,2000,3528,3529,3541,3540,3806,3807,3829,3828
EN,2001,3531,3530,3542,3543,3809,3808,3830,3831
EN,2002,3530,3533,3545,3542,3808,3810,3832,3830
EN,2003,3533,3535,3547,3545,3810,3811,3833,3832
EN,2004,3535,3548,3551,3547,3811,3812,3834,3833
EN,2005,3548,3549,3550,3551,3812,3813,3835,3834
EN,2006,3549,3814,3836,3550,3813,3815,3837,3835
EN,2007,3814,3816,3838,3836,3815,3817,3839,3837
EN,2008,3816,3818,3840,3838,3817,3819,3841,3839
EN,2009,3818,3820,3842,3840,3819,3821,3843,3841
EN,2010,3820,3822,3844,3842,3821,3823,3845,3843
EN,2011,3822,3552,3555,3844,3823,3824,3846,3845
EN,2012,3552,3553,3554,3555,3824,3825,3847,3846
EN,2013,3553,3539,3559,3554,3825,3826,3848,3847
EN,2014,3539,3538,3558,3559,3826,3827,3849,3848
EN,2015,3538,3540,3560,3558,3827,3828,3850,3849
EN,2016,3540,3541,3561,3560,3828,3829,3851,3850
EN,2017,3543,3542,3562,3563,3831,3830,3852,3853
EN,2018,3542,3545,3565,3562,3830,3832,3854,3852
EN,2019,3545,3547,3567,3565,3832,3833,3855,3854
EN,2020,3547,3551,3856,3567,3833,3834,3857,3855
EN,2021,3551,3550,3858,3856,3834,3835,3859,3857
EN,2022,3550,3836,3860,3858,3835,3837,3861,3859
EN,2023,3836,3838,3862,3860,3837,3839,3863,3861
EN,2024,3838,3840,3864,3862,3839,3841,3865,3863
EN,2025,3840,3842,3866,3864,3841,3843,3867,3865
EN,2026,3842,3844,3868,3866,3843,3845,3869,3867
EN,2027,3844,3555,3870,3868,3845,3846,3871,3869
EN,2028,3555,3554,3872,3870,3846,3847,3873,3871
EN,2029,3554,3559,3571,3872,3847,3848,3874,3873
EN,2030,3559,3558,3570,3571,3848,3849,3875,3874
EN,2031,3558,3560,3572,3570,3849,3850,3876,3875
EN,2032,3560,3561,3573,3572,3850,3851,3877,3876
EN,2033,3563,3562,3574,3575,3853,3852,3878,3879
EN,2034,3562,3565,3577,3574,3852,3854,3880,3878
EN,2035,3565,3567,3579,3577,3854,3855,3881,3880
EN,2036,3567,3856,3882,3579,3855,3857,3883,3881
EN,2037,3856,3858,3884,3882,3857,3859,3885,3883
EN,2038,3858,3860,3886,3884,3859,3861,3887,3885
EN,2039,3860,3862,3888,3886,3861,3863,3889,3887
EN,2040,3862,3864,3890,3888,3863,3865,3891,3889
EN,2041,3864,3866,3892,3890,3865,3867,3893,3891
EN,2042,3866,3868,3894,3892,3867,3869,3895,3893
EN,2043,3868,3870,3896,3894,3869,3871,3897,3895
EN,2044,3870,3872,3898,3896,3871,3873,3899,3897
EN,2045,3872,3571,3583,3898,3873,3874,3900,3899
EN,2046,3571,3570,3582,3583,3874,3875,3901,3900
EN,2047,3570,3572,3584,3582,3875,3876,3902,3901
EN,2048,3572,3573,3585,3584,3876,3877,3903,3902
EN,2049,3575,3574,3586,3587,3879,3878,3904,3905
EN,2050,3574,3577,3589,3586,3878,3880,3906,3904
EN,2051,3577,3579,3591,3589,3880,3881,3907,3906
EN,2052,3579,3882,3908,3591,3881,3883,3909,3907
EN,2053,3882,3884,3910,3908,3883,3885,3911,3909
EN,2054,3884,3886,3912,3910,3885,3887,3913,3911
EN,2055,3886,3888,3914,3912,3887,3889,3915,3913
EN,2056,3888,3890,3916,3914,3889,3891,3917,3915
EN,2057,3890,3892,3918,3916,3891,3893,3919,3917
EN,2058,3892,3894,3920,3918,3893,3895,3921,3919
EN,2059,3894,3896,3922,3920,3895,3897,3923,3921
EN,2060,3896,3898,3924,3922,3897,3899,3925,3923
EN,2061,3898,3583,3595,3924,3899,3900,3926,3925
EN,2062,3583,3582,3594,3595,3900,3901,3927,3926
EN,2063,3582,3584,3596,3594,3901,3902,3928,3927
EN,2064,3584,3585,3597,3596,3902,3903,3929,3928
EN,2065,3587,3586,3598,3599,3905,3904,3930,3931
EN,2066,3586,3589,3601,3598,3904,3906,3932,3930
EN,2067,3589,3591,3603,3601,3906,3907,3933,3932
EN,2068,3591,3908,3934,3603,3907,3909,3935,3933
EN,2069,3908,3910,3936,3934,3909,3911,3937,3935
EN,2070,3910,3912,3938,3936,3911,3913,3939,3937
EN,2071,3912,3914,3940,3938,3913,3915,3941,3939
EN,2072,3914,3916,3942,3940,3915,3917,3943,3941
EN,2073,3916,3918,3944,3942,3917,3919,3945,3943
EN,2074,3918,3920,3946,3944,3919,3921,3947,3945
EN,2075,3920,3922,3948,3946,3921,3923,3949,3947
EN,2076,3922,3924,3950,3948,3923,3925,3951,3949
EN,2077,3924,3595,3607,3950,3925,3926,3952,3951
EN,2078,3595,3594,3606,3607,3926,3927,3953,3952
EN,2079,3594,3596,3608,3606,3927,3928,3954,3953
EN,2080,3596,3597,3609,3608,3928,3929,3955,3954
EN,2081,3599,3598,3610,3611,3931,3930,3956,3957
EN,2082,3598,3601,3613,3610,3930,3932,3958,3956
EN,2083,3601,3603,3615,3613,3932,3933,3959,3958
EN,2084,3603,3934,3960,3615,3933,3935,3961,3959
EN,2085,3934,3936,3962,3960,3935,3937,3963,3961
EN,2086,3936,3938,3964,3962,3937,3939,3965,3963
EN,2087,3938,3940,3966,3964,3939,3941,3967,3965
EN,2088,3940,3942,3968,3966,3941,3943,3969,3967
EN,2089,3942,3944,3970,3968,3943,3945,3971,3969
EN,2090,3944,3946,3972,3970,3945,3947,3973,3971
EN,2091,3946,3948,3974,3972,3947,3949,3975,3973
EN,2092,3948,3950,3976,3974,3949,3951,3977,3975
EN,2093,3950,3607,3619,3976,3951,3952,3978,3977
EN,2094,3607,3606,3618,3619,3952,3953,3979,3978
EN,2095,3606,3608,3620,3618,3953,3954,3980,3979
EN,2096,3608,3609,3621,3620,3954,3955,3981,3980
EN,2097,3611,3610,3622,3623,3957,3956,3982,3983
EN,2098,3610,3613,3625,3622,3956,3958,3984,3982
EN,2099,3613,3615,3627,3625,3958,3959,3985,3984
EN,2100,3615,3960,3640,3627,3959,3961,3986,3985
EN,2101,3960,3962,3641,3640,3961,3963,3987,3986
EN,2102,3962,3964,3988,3641,3963,3965,3989,3987
EN,2103,3964,3966,3990,3988,3965,3967,3991,3989
EN,2104,3966,3968,3992,3990,3967,3969,3993,3991
EN,2105,3968,3970,3994,3992,3969,3971,3995,3993
EN,2106,3970,3972,3996,3994,3971,3973,3997,3995
EN,2107,3972,3974,3644,3996,3973,3975,3998,3997
EN,2108,3974,3976,3645,3644,3975,3977,3999,3998
EN,2109,3976,3619,3631,3645,3977,3978,4000,3999
EN,2110,3619,3618,3630,3631,3978,3979,4001,4000
EN,2111,3618,3620,3632,3630,3979,3980,4002,4001
EN,2112,3620,3621,3633,3632,3980,3981,4003,4002
EN,2113,3623,3622,3634,3635,3983,3982,4004,4005
EN,2114,3622,3625,3637,3634,3982,3984,4006,4004
EN,2115,3625,3627,3639,3637,3984,3985,4007,4006
EN,2116,3627,3640,3643,3639,3985,3986,4008,4007
EN,2117,3640,3641,3642,3643,3986,3987,4009,4008
EN,2118,3641,3988,4010,3642,3987,3989,4011,4009
EN,2119,3988,3990,4012,4010,3989,3991,4013,4011
EN,2120,3990,3992,4014,4012,3991,3993,4015,4013
EN,2121,3992,3994,4016,4014,3993,3995,4017,4015
EN,2122,3994,3996,4018,4016,3995,3997,4019,4017
EN,2123,3996,3644,3647,4018,3997,3998,4020,4019
EN,2124,3644,3645,3646,3647,3998,3999,4021,4020
EN,2125,3645,3631,3651,3646,3999,4000,4022,4021
EN,2126,3631,3630,3650,3651,4000,4001,4023,4022
EN,2127,3630,3632,3652,3650,4001,4002,4024,4023
EN,2128,3632,3633,3653,3652,4002,4003,4025,4024
EN,2129,3635,3634,3654,3655,4005,4004,4026,4027
EN,2130,3634,3637,3656,3654,4004,4006,4028,4026
EN,2131,3637,3639,3657,3656,4006,4007,4029,4028
EN,2132,3639,3643,3668,3657,4007,4008,4030,4029
EN,2133,3643,3642,3672,3668,4008,4009,4031,4030
EN,2134,3642,4010,3676,3672,4009,4011,4032,4031
EN,2135,4010,4012,3680,3676,4011,4013,4033,4032
EN,2136,4012,4014,3684,3680,4013,4015,4034,4033
EN,2137,4014,4016,3688,3684,4015,4017,4035,4034
EN,2138,4016,4018,3692,3688,4017,4019,4036,4035
EN,2139,4018,3647,3696,3692,4019,4020,4037,4036
EN,2140,3647,3646,3700,3696,4020,4021,4038,4037
EN,2141,3646,3651,3659,3700,4021,4022,4039,4038
EN,2142,3651,3650,3658,3659,4022,4023,4040,4039
EN,2143,3650,3652,3660,3658,4023,4024,4041,4040
EN,2144,3652,3653,3661,3660,4024,4025,4042,4041
EN,2145,3655,3654,3662,3663,4027,4026,4043,4044
EN,2146,3654,3656,3664,3662,4026,4028,4045,4043
EN,2147,3656,3657,3665,3664,4028,4029,4046,4045
EN,2148,3657,3668,3669,3665,4029,4030,4047,4046
EN,2149,3668,3672,3673,3669,4030,4031,4048,4047
EN,2150,3672,3676,3677,3673,4031,4032,4049,4048
EN,2151,3676,3680,3681,3677,4032,4033,4050,4049
EN,2152,3680,3684,3685,3681,4033,4034,4051,4050
EN,2153,3684,3688,3689,3685,4034,4035,4052,4051
EN,2154,3688,3692,3693,3689,4035,4036,4053,4052
EN,2155,3692,3696,3697,3693,4036,4037,4054,4053
EN,2156,3696,3700,3701,3697,4037,4038,4055,4054
EN,2157,3700,3659,3702,3701,4038,4039,4056,4055
EN,2158,3659,3658,3703,3702,4039,4040,4057,4056
EN,2159,3658,3660,3704,3703,4040,4041,4058,4057
EN,2160,3660,3661,3705,3704,4041,4042,4059,4058
EN,2161,3663,3662,3706,3707,4044,4043,4060,4061
EN,2162,3662,3664,3708,3706,4043,4045,4062,4060
EN,2163,3664,3665,3709,3708,4045,4046,4063,4062
EN,2164,3665,3669,3710,3709,4046,4047,4064,4063
EN,2165,3669,3673,3711,3710,4047,4048,4065,4064
EN,2166,3673,3677,3712,3711,4048,4049,4066,4065
EN,2167,3677,3681,3713,3712,4049,4050,4067,4066
EN,2168,3681,3685,3714,3713,4050,4051,4068,4067
EN,2169,3685,3689,3715,3714,4051,4052,4069,4068
EN,2170,3689,3693,3716,3715,4052,4053,4070,4069
EN,2171,3693,3697,3717,3716,4053,4054,4071,4070
EN,2172,3697,3701,3718,3717,4054,4055,4072,4071
EN,2173,3701,3702,3719,3718,4055,4056,4073,4072
EN,2174,3702,3703,3720,3719,4056,4057,4074,4073
EN,2175,3703,3704,3721,3720,4057,4058,4075,4074
EN,2176,3704,3705,3722,3721,4058,4059,4076,4075
EN,2177,3707,3706,3723,3724,4061,4060,4077,4078
EN,2178,3706,3708,3725,3723,4060,4062,4079,4077
EN,2179,3708,3709,3726,3725,4062,4063,4080,4079
EN,2180,3709,3710,3727,3726,4063,4064,4081,4080
EN,2181,3710,3711,3728,3727,4064,4065,4082,4081
EN,2182,3711,3712,3729,3728,4065,4066,4083,4082
EN,2183,3712,3713,3730,3729,4066,4067,4084,4083
EN,2184,3713,3714,3731,3730,4067,4068,4085,4084
EN,2185,3714,3715,3732,3731,4068,4069,4086,4085
EN,2186,3715,3716,3733,3732,4069,4070,4087,4086
EN,2187,3716,3717,3734,3733,4070,4071,4088,4087
EN,2188,3717,3718,3735,3734,4071,4072,4089,4088
EN,2189,3718,3719,3736,3735,4072,4073,4090,4089
EN,2190,3719,3720,3737,3736,4073,4074,4091,4090
EN,2191,3720,3721,3738,3737,4074,4075,4092,4091
EN,2192,3721,3722,3739,3738,4075,4076,4093,4092
ESEL,NONE
ESEL,A,ELEM,,1
ESEL,A,ELEM,,2
ESEL,A,ELEM,,3
ESEL,A,ELEM,,4
ESEL,A,ELEM,,5
ESEL,A,ELEM,,6
ESEL,A,ELEM,,7
ESEL,A,ELEM,,8
ESEL,A,ELEM,,9
ESEL,A,ELEM,,10
ESEL,A,ELEM,,11
ESEL,A,ELEM,,12
ESEL,A,ELEM,,13
ESEL,A,ELEM,,14
ESEL,A,ELEM,,15
ESEL,A,ELEM,,16
ESEL,A,ELEM,,17
ESEL,A,ELEM,,18
ESEL,A,ELEM,,19
ESEL,A,ELEM,,20
ESEL,A,ELEM,,21
ESEL,A,ELEM,,22
ESEL,A,ELEM,,23
ESEL,A,ELEM,,24
ESEL,A,ELEM,,25
ESEL,A,ELEM,,26
ESEL,A,ELEM,,27
ESEL,A,ELEM,,28
ESEL,A,ELEM,,29
ESEL,A,ELEM,,30
ESEL,A,ELEM,,31
ESEL,A,ELEM,,32
ESEL,A,ELEM,,33
ESEL,A,ELEM,,34
ESEL,A,ELEM,,35
ESEL,A,ELEM,,36
ESEL,A,ELEM,,37
ESEL,A,ELEM,,38
ESEL,A,ELEM,,39
ESEL,A,ELEM,,40
ESEL,A,ELEM,,41
ESEL,A,ELEM,,42
ESEL,A,ELEM,,43
ESEL,A,ELEM,,44
ESEL,A,ELEM,,45
ESEL,A,ELEM,,46
ESEL,A,ELEM,,47
ESEL,A,ELEM,,48
ESEL,A,ELEM,,49
ESEL,A,ELEM,,50
ESEL,A,ELEM,,51
ESEL,A,ELEM,,52
ESEL,A,ELEM,,53
ESEL,A,ELEM,,54
ESEL,A,ELEM,,55
ESEL,A,ELEM,,56
ESEL,A,ELEM,,57
ESEL,A,ELEM,,58
ESEL,A,ELEM,,59
ESEL,A,ELEM,,60
ESEL,A,ELEM,,61
ESEL,A,ELEM,,62
ESEL,A,ELEM,,63
ESEL,A,ELEM,,64
ESEL,A,ELEM,,65
ESEL,A,ELEM,,66
ESEL,A,ELEM,,67
ESEL,A,ELEM,,68
ESEL,A,ELEM,,69
ESEL,A,ELEM,,70
ESEL,A,ELEM,,71
ESEL,A,ELEM,,72
ESEL,A,ELEM,,73
ESEL,A,ELEM,,74
ESEL,A,ELEM,,75
ESEL,A,ELEM,,76
ESEL,A,ELEM,,77
ESEL,A,ELEM,,78
ESEL,A,ELEM,,79
ESEL,A,ELEM,,80
ESEL,A,ELEM,,81
ESEL,A,ELEM,,82
ESEL,A,ELEM,,83
ESEL,A,ELEM,,84
ESEL,A,ELEM,,85
ESEL,A,ELEM,,86
ESEL,A,ELEM,,87
ESEL,A,ELEM,,88
ESEL,A,ELEM,,89
ESEL,A,ELEM,,90
ESEL,A,ELEM,,91
ESEL,A,ELEM,,92
ESEL,A,ELEM,,93
ESEL,A,ELEM,,94
ESEL,A,ELEM,,95
ESEL,A,ELEM,,96
ESEL,A,ELEM,,97
ESEL,A,ELEM,,98
ESEL,A,ELEM,,99
ESEL,A,ELEM,,100
ESEL,A,ELEM,,101
ESEL,A,ELEM,,102
ESEL,A,ELEM,,103
ESEL,A,ELEM,,104
ESEL,A,ELEM,,105
ESEL,A,ELEM,,106
ESEL,A,ELEM,,107
ESEL,A,ELEM,,108
ESEL,A,ELEM,,109
ESEL,A,ELEM,,110
ESEL,A,ELEM,,111
ESEL,A,ELEM,,112
ESEL,A,ELEM,,113
ESEL,A,ELEM,,114
ESEL,A,ELEM,,115
ESEL,A,ELEM,,116
ESEL,A,ELEM,,117
ESEL,A,ELEM,,118
ESEL,A,ELEM,,119
ESEL,A,ELEM,,120
ESEL,A,ELEM,,121
ESEL,A,ELEM,,122
ESEL,A,ELEM,,123
ESEL,A,ELEM,,124
ESEL,A,ELEM,,125
ESEL,A,ELEM,,126
ESEL,A,ELEM,,127
ESEL,A,ELEM,,128
ESEL,A,ELEM,,129
ESEL,A,ELEM,,130
ESEL,A,ELEM,,131
ESEL,A,ELEM,,132
ESEL,A,ELEM,,133
ESEL,A,ELEM,,134
ESEL,A,ELEM,,135
ESEL,A,ELEM,,136
ESEL,A,ELEM,,137
ESEL,A,ELEM,,138
ESEL,A,ELEM,,139
ESEL,A,ELEM,,140
ESEL,A,ELEM,,141
ESEL,A,ELEM,,142
ESEL,A,ELEM,,143
ESEL,A,ELEM,,144
ESEL,A,ELEM,,145
ESEL,A,ELEM,,146
ESEL,A,ELEM,,147
ESEL,A,ELEM,,148
ESEL,A,ELEM,,149
ESEL,A,ELEM,,150
ESEL,A,ELEM,,151
ESEL,A,ELEM,,152
ESEL,A,ELEM,,153
ESEL,A,ELEM,,154
ESEL,A,ELEM,,155
ESEL,A,ELEM,,156
ESEL,A,ELEM,,157
ESEL,A,ELEM,,158
ESEL,A,ELEM,,159
ESEL,A,ELEM,,160
ESEL,A,ELEM,,161
ESEL,A,ELEM,,162
ESEL,A,ELEM,,163
ESEL,A,ELEM,,164
ESEL,A,ELEM,,165
ESEL,A,ELEM,,166
ESEL,A,ELEM,,167
ESEL,A,ELEM,,168
ESEL,A,ELEM,,169
ESEL,A,ELEM,,170
ESEL,A,ELEM,,171
ESEL,A,ELEM,,172
ESEL,A,ELEM,,173
ESEL,A,ELEM,,174
ESEL,A,ELEM,,175
ESEL,A,ELEM,,176
ESEL,A,ELEM,,177
ESEL,A,ELEM,,178
ESEL,A,ELEM,,179
ESEL,A,ELEM,,180
ESEL,A,ELEM,,181
ESEL,A,ELEM,,182
ESEL,A,ELEM,,183
ESEL,A,ELEM,,184
ESEL,A,ELEM,,185
ESEL,A,ELEM,,186
ESEL,A,ELEM,,187
ESEL,A,ELEM,,188
ESEL,A,ELEM,,189
ESEL,A,ELEM,,190
ESEL,A,ELEM,,191
ESEL,A,ELEM,,192
ESEL,A,ELEM,,193
ESEL,A,ELEM,,194
ESEL,A,ELEM,,195
ESEL,A,ELEM,,196
ESEL,A,ELEM,,197
ESEL,A,ELEM,,198
ESEL,A,ELEM,,199
ESEL,A,ELEM,,200
ESEL,A,ELEM,,201
ESEL,A,ELEM,,202
ESEL,A,ELEM,,203
ESEL,A,ELEM,,204
ESEL,A,ELEM,,205
ESEL,A,ELEM,,206
ESEL,A,ELEM,,207
ESEL,A,ELEM,,208
ESEL,A,ELEM,,209
ESEL,A,ELEM,,210
ESEL,A,ELEM,,211
ESEL,A,ELEM,,212
ESEL,A,ELEM,,213
ESEL,A,ELEM,,214
ESEL,A,ELEM,,215
ESEL,A,ELEM,,216
ESEL,A,ELEM,,217
ESEL,A,ELEM,,218
ESEL,A,ELEM,,219
ESEL,A,ELEM,,220
ESEL,A,ELEM,,221
ESEL,A,ELEM,,222
ESEL,A,ELEM,,223
ESEL,A,ELEM,,224
ESEL,A,ELEM,,225
ESEL,A,ELEM,,226
ESEL,A,ELEM,,227
ESEL,A,ELEM,,228
ESEL,A,ELEM,,229
ESEL,A,ELEM,,230
ESEL,A,ELEM,,231
ESEL,A,ELEM,,232
ESEL,A,ELEM,,233
ESEL,A,ELEM,,234
ESEL,A,ELEM,,235
ESEL,A,ELEM,,236
ESEL,A,ELEM,,237
ESEL,A,ELEM,,238
ESEL,A,ELEM,,239
ESEL,A,ELEM,,240
ESEL,A,ELEM,,241
ESEL,A,ELEM,,242
ESEL,A,ELEM,,243
ESEL,A,ELEM,,244
ESEL,A,ELEM,,245
ESEL,A,ELEM,,246
ESEL,A,ELEM,,247
ESEL,A,ELEM,,248
ESEL,A,ELEM,,249
ESEL,A,ELEM,,250
ESEL,A,ELEM,,251
ESEL,A,ELEM,,252
ESEL,A,ELEM,,253
ESEL,A,ELEM,,254
ESEL,A,ELEM,,255
ESEL,A,ELEM,,256
CM,panel5,ELEM
ALLSEL,ALL
ESEL,NONE
ESEL,A,ELEM,,257
ESEL,A,ELEM,,273
ESEL,A,ELEM,,289
ESEL,A,ELEM,,305
ESEL,A,ELEM,,311
ESEL,A,ELEM,,319
ESEL,A,ELEM,,325
ESEL,A,ELEM,,331
ESEL,A,ELEM,,337
ESEL,A,ELEM,,343
ESEL,A,ELEM,,349
ESEL,A,ELEM,,355
ESEL,A,ELEM,,363
ESEL,A,ELEM,,369
ESEL,A,ELEM,,385
ESEL,A,ELEM,,401
ESEL,A,ELEM,,417
ESEL,A,ELEM,,433
ESEL,A,ELEM,,439
ESEL,A,ELEM,,445
ESEL,A,ELEM,,447
ESEL,A,ELEM,,451
ESEL,A,ELEM,,453
ESEL,A,ELEM,,455
ESEL,A,ELEM,,457
ESEL,A,ELEM,,459
ESEL,A,ELEM,,461
ESEL,A,ELEM,,463
ESEL,A,ELEM,,467
ESEL,A,ELEM,,469
ESEL,A,ELEM,,475
ESEL,A,ELEM,,481
ESEL,A,ELEM,,497
ESEL,A,ELEM,,513
ESEL,A,ELEM,,519
ESEL,A,ELEM,,535
ESEL,A,ELEM,,549
ESEL,A,ELEM,,563
ESEL,A,ELEM,,577
ESEL,A,ELEM,,591
ESEL,A,ELEM,,605
ESEL,A,ELEM,,619
ESEL,A,ELEM,,633
ESEL,A,ELEM,,647
ESEL,A,ELEM,,661
ESEL,A,ELEM,,675
ESEL,A,ELEM,,691
ESEL,A,ELEM,,697
ESEL,A,ELEM,,713
ESEL,A,ELEM,,729
ESEL,A,ELEM,,735
ESEL,A,ELEM,,741
ESEL,A,ELEM,,743
ESEL,A,ELEM,,747
ESEL,A,ELEM,,749
ESEL,A,ELEM,,751
ESEL,A,ELEM,,753
ESEL,A,ELEM,,755
ESEL,A,ELEM,,757
ESEL,A,ELEM,,759
ESEL,A,ELEM,,763
ESEL,A,ELEM,,765
ESEL,A,ELEM,,771
ESEL,A,ELEM,,777
ESEL,A,ELEM,,793
ESEL,A,ELEM,,809
ESEL,A,ELEM,,815
ESEL,A,ELEM,,831
ESEL,A,ELEM,,845
ESEL,A,ELEM,,859
ESEL,A,ELEM,,873
ESEL,A,ELEM,,887
ESEL,A,ELEM,,901
ESEL,A,ELEM,,915
ESEL,A,ELEM,,929
ESEL,A,ELEM,,943
ESEL,A,ELEM,,957
ESEL,A,ELEM,,971
ESEL,A,ELEM,,987
ESEL,A,ELEM,,993
ESEL,A,ELEM,,1009
ESEL,A,ELEM,,1025
ESEL,A,ELEM,,1031
ESEL,A,ELEM,,1037
ESEL,A,ELEM,,1039
ESEL,A,ELEM,,1043
ESEL,A,ELEM,,1045
ESEL,A,ELEM,,1051
ESEL,A,ELEM,,1057
ESEL,A,ELEM,,1063
ESEL,A,ELEM,,1069
ESEL,A,ELEM,,1071
ESEL,A,ELEM,,1075
ESEL,A,ELEM,,1077
ESEL,A,ELEM,,1083
ESEL,A,ELEM,,1089
ESEL,A,ELEM,,1105
ESEL,A,ELEM,,1121
ESEL,A,ELEM,,1127
ESEL,A,ELEM,,1133
ESEL,A,ELEM,,1135
ESEL,A,ELEM,,1139
ESEL,A,ELEM,,1141
ESEL,A,ELEM,,1143
ESEL,A,ELEM,,1145
ESEL,A,ELEM,,1147
ESEL,A,ELEM,,1149
ESEL,A,ELEM,,1151
ESEL,A,ELEM,,1155
ESEL,A,ELEM,,1157
ESEL,A,ELEM,,1163
ESEL,A,ELEM,,1169
ESEL,A,ELEM,,1185
ESEL,A,ELEM,,1201
ESEL,A,ELEM,,1207
ESEL,A,ELEM,,1223
ESEL,A,ELEM,,1237
ESEL,A,ELEM,,1251
ESEL,A,ELEM,,1265
ESEL,A,ELEM,,1279
ESEL,A,ELEM,,1293
ESEL,A,ELEM,,1307
ESEL,A,ELEM,,1321
ESEL,A,ELEM,,1335
ESEL,A,ELEM,,1349
ESEL,A,ELEM,,1363
ESEL,A,ELEM,,1379
ESEL,A,ELEM,,1385
ESEL,A,ELEM,,1401
ESEL,A,ELEM,,1417
ESEL,A,ELEM,,1423
ESEL,A,ELEM,,1429
ESEL,A,ELEM,,1431
ESEL,A,ELEM,,1435
ESEL,A,ELEM,,1437
ESEL,A,ELEM,,1439
ESEL,A,ELEM,,1441
ESEL,A,ELEM,,1443
ESEL,A,ELEM,,1445
ESEL,A,ELEM,,1447
ESEL,A,ELEM,,1451
ESEL,A,ELEM,,1453
ESEL,A,ELEM,,1459
ESEL,A,ELEM,,1465
ESEL,A,ELEM,,1481
ESEL,A,ELEM,,1497
ESEL,A,ELEM,,1503
ESEL,A,ELEM,,1519
ESEL,A,ELEM,,1533
ESEL,A,ELEM,,1547
ESEL,A,ELEM,,1561
ESEL,A,ELEM,,1575
ESEL,A,ELEM,,1589
ESEL,A,ELEM,,1603
ESEL,A,ELEM,,1617
ESEL,A,ELEM,,1631
ESEL,A,ELEM,,1645
ESEL,A,ELEM,,1659
ESEL,A,ELEM,,1675
ESEL,A,ELEM,,1681
ESEL,A,ELEM,,1697
ESEL,A,ELEM,,1713
ESEL,A,ELEM,,1719
ESEL,A,ELEM,,1725
ESEL,A,ELEM,,1727
ESEL,A,ELEM,,1731
ESEL,A,ELEM,,1733
ESEL,A,ELEM,,1735
ESEL,A,ELEM,,1737
ESEL,A,ELEM,,1739
ESEL,A,ELEM,,1741
ESEL,A,ELEM,,1743
ESEL,A,ELEM,,1747
ESEL,A,ELEM,,1749
ESEL,A,ELEM,,1755
ESEL,A,ELEM,,1761
ESEL,A,ELEM,,1777
ESEL,A,ELEM,,1793
ESEL,A,ELEM,,1809
ESEL,A,ELEM,,1825
ESEL,A,ELEM,,1831
ESEL,A,ELEM,,1839
ESEL,A,ELEM,,1845
ESEL,A,ELEM,,1851
ESEL,A,ELEM,,1857
ESEL,A,ELEM,,1863
ESEL,A,ELEM,,1869
ESEL,A,ELEM,,1875
ESEL,A,ELEM,,1883
ESEL,A,ELEM,,1889
ESEL,A,ELEM,,1905
ESEL,A,ELEM,,1921
CM,panel1,ELEM
ALLSEL,ALL
ESEL,NONE
ESEL,A,ELEM,,258
ESEL,A,ELEM,,259
ESEL,A,ELEM,,260
ESEL,A,ELEM,,261
ESEL,A,ELEM,,262
ESEL,A,ELEM,,263
ESEL,A,ELEM,,264
ESEL,A,ELEM,,265
ESEL,A,ELEM,,266
ESEL,A,ELEM,,267
ESEL,A,ELEM,,268
ESEL,A,ELEM,,269
ESEL,A,ELEM,,270
ESEL,A,ELEM,,271
ESEL,A,ELEM,,418
ESEL,A,ELEM,,419
ESEL,A,ELEM,,420
ESEL,A,ELEM,,421
ESEL,A,ELEM,,422
ESEL,A,ELEM,,423
ESEL,A,ELEM,,424
ESEL,A,ELEM,,425
ESEL,A,ELEM,,426
ESEL,A,ELEM,,427
ESEL,A,ELEM,,428
ESEL,A,ELEM,,429
ESEL,A,ELEM,,430
ESEL,A,ELEM,,431
ESEL,A,ELEM,,498
ESEL,A,ELEM,,499
ESEL,A,ELEM,,500
ESEL,A,ELEM,,501
ESEL,A,ELEM,,502
ESEL,A,ELEM,,503
ESEL,A,ELEM,,504
ESEL,A,ELEM,,505
ESEL,A,ELEM,,506
ESEL,A,ELEM,,507
ESEL,A,ELEM,,508
ESEL,A,ELEM,,509
ESEL,A,ELEM,,510
ESEL,A,ELEM,,511
ESEL,A,ELEM,,714
ESEL,A,ELEM,,715
ESEL,A,ELEM,,716
ESEL,A,ELEM,,717
ESEL,A,ELEM,,718
ESEL,A,ELEM,,719
ESEL,A,ELEM,,720
ESEL,A,ELEM,,721
ESEL,A,ELEM,,722
ESEL,A,ELEM,,723
ESEL,A,ELEM,,724
ESEL,A,ELEM,,725
ESEL,A,ELEM,,726
ESEL,A,ELEM,,727
ESEL,A,ELEM,,794
ESEL,A,ELEM,,795
ESEL,A,ELEM,,796
ESEL,A,ELEM,,797
ESEL,A,ELEM,,798
ESEL,A,ELEM,,799
ESEL,A,ELEM,,800
ESEL,A,ELEM,,801
ESEL,A,ELEM,,802
ESEL,A,ELEM,,803
ESEL,A,ELEM,,804
ESEL,A,ELEM,,805
ESEL,A,ELEM,,806
ESEL,A,ELEM,,807
ESEL,A,ELEM,,1010
ESEL,A,ELEM,,1011
ESEL,A,ELEM,,1012
ESEL,A,ELEM,,1013
ESEL,A,ELEM,,1014
ESEL,A,ELEM,,1015
ESEL,A,ELEM,,1016
ESEL,A,ELEM,,1017
ESEL,A,ELEM,,1018
ESEL,A,ELEM,,1019
ESEL,A,ELEM,,1020
ESEL,A,ELEM,,1021
ESEL,A,ELEM,,1022
ESEL,A,ELEM,,1023
ESEL,A,ELEM,,1106
ESEL,A,ELEM,,1107
ESEL,A,ELEM,,1108
ESEL,A,ELEM,,1109
ESEL,A,ELEM,,1110
ESEL,A,ELEM,,1111
ESEL,A,ELEM,,1112
ESEL,A,ELEM,,1113
ESEL,A,ELEM,,1114
ESEL,A,ELEM,,1115
ESEL,A,ELEM,,1116
ESEL,A,ELEM,,1117
ESEL,A,ELEM,,1118
ESEL,A,ELEM,,1119
ESEL,A,ELEM,,1186
ESEL,A,ELEM,,1187
ESEL,A,ELEM,,1188
ESEL,A,ELEM,,1189
ESEL,A,ELEM,,1190
ESEL,A,ELEM,,1191
ESEL,A,ELEM,,1192
ESEL,A,ELEM,,1193
ESEL,A,ELEM,,1194
ESEL,A,ELEM,,1195
ESEL,A,ELEM,,1196
ESEL,A,ELEM,,1197
ESEL,A,ELEM,,1198
ESEL,A,ELEM,,1199
ESEL,A,ELEM,,1402
ESEL,A,ELEM,,1403
ESEL,A,ELEM,,1404
ESEL,A,ELEM,,1405
ESEL,A,ELEM,,1406
ESEL,A,ELEM,,1407
ESEL,A,ELEM,,1408
ESEL,A,ELEM,,1409
ESEL,A,ELEM,,1410
ESEL,A,ELEM,,1411
ESEL,A,ELEM,,1412
ESEL,A,ELEM,,1413
ESEL,A,ELEM,,1414
ESEL,A,ELEM,,1415
ESEL,A,ELEM,,1482
ESEL,A,ELEM,,1483
ESEL,A,ELEM,,1484
ESEL,A,ELEM,,1485
ESEL,A,ELEM,,1486
ESEL,A,ELEM,,1487
ESEL,A,ELEM,,1488
ESEL,A,ELEM,,1489
ESEL,A,ELEM,,1490
ESEL,A,ELEM,,1491
ESEL,A,ELEM,,1492
ESEL,A,ELEM,,1493
ESEL,A,ELEM,,1494
ESEL,A,ELEM,,1495
ESEL,A,ELEM,,1698
ESEL,A,ELEM,,1699
ESEL,A,ELEM,,1700
ESEL,A,ELEM,,1701
ESEL,A,ELEM,,1702
ESEL,A,ELEM,,1703
ESEL,A,ELEM,,1704
ESEL,A,ELEM,,1705
ESEL,A,ELEM,,1706
ESEL,A,ELEM,,1707
ESEL,A,ELEM,,1708
ESEL,A,ELEM,,1709
ESEL,A,ELEM,,1710
ESEL,A,ELEM,,1711
ESEL,A,ELEM,,1778
ESEL,A,ELEM,,1779
ESEL,A,ELEM,,1780
ESEL,A,ELEM,,1781
ESEL,A,ELEM,,1782
ESEL,A,ELEM,,1783
ESEL,A,ELEM,,1784
ESEL,A,ELEM,,1785
ESEL,A,ELEM,,1786
ESEL,A,ELEM,,1787
ESEL,A,ELEM,,1788
ESEL,A,ELEM,,1789
ESEL,A,ELEM,,1790
ESEL,A,ELEM,,1791
CM,panel3,ELEM
ALLSEL,ALL
ESEL,NONE
ESEL,A,ELEM,,272
ESEL,A,ELEM,,288
ESEL,A,ELEM,,304
ESEL,A,ELEM,,310
ESEL,A,ELEM,,318
ESEL,A,ELEM,,324
ESEL,A,ELEM,,330
ESEL,A,ELEM,,336
ESEL,A,ELEM,,342
ESEL,A,ELEM,,348
ESEL,A,ELEM,,354
ESEL,A,ELEM,,362
ESEL,A,ELEM,,368
ESEL,A,ELEM,,384
ESEL,A,ELEM,,400
ESEL,A,ELEM,,416
ESEL,A,ELEM,,432
ESEL,A,ELEM,,438
ESEL,A,ELEM,,444
ESEL,A,ELEM,,446
ESEL,A,ELEM,,450
ESEL,A,ELEM,,452
ESEL,A,ELEM,,454
ESEL,A,ELEM,,456
ESEL,A,ELEM,,458
ESEL,A,ELEM,,460
ESEL,A,ELEM,,462
ESEL,A,ELEM,,466
ESEL,A,ELEM,,468
ESEL,A,ELEM,,474
ESEL,A,ELEM,,480
ESEL,A,ELEM,,496
ESEL,A,ELEM,,512
ESEL,A,ELEM,,518
ESEL,A,ELEM,,534
ESEL,A,ELEM,,548
ESEL,A,ELEM,,562
ESEL,A,ELEM,,576
ESEL,A,ELEM,,590
ESEL,A,ELEM,,604
ESEL,A,ELEM,,618
ESEL,A,ELEM,,632
ESEL,A,ELEM,,646
ESEL,A,ELEM,,660
ESEL,A,ELEM,,674
ESEL,A,ELEM,,690
ESEL,A,ELEM,,696
ESEL,A,ELEM,,712
ESEL,A,ELEM,,728
ESEL,A,ELEM,,734
ESEL,A,ELEM,,740
ESEL,A,ELEM,,742
ESEL,A,ELEM,,746
ESEL,A,ELEM,,748
ESEL,A,ELEM,,750
ESEL,A,ELEM,,752
ESEL,A,ELEM,,754
ESEL,A,ELEM,,756
ESEL,A,ELEM,,758
ESEL,A,ELEM,,762
ESEL,A,ELEM,,764
ESEL,A,ELEM,,770
ESEL,A,ELEM,,776
ESEL,A,ELEM,,792
ESEL,A,ELEM,,808
ESEL,A,ELEM,,814
ESEL,A,ELEM,,830
ESEL,A,ELEM,,844
ESEL,A,ELEM,,858
ESEL,A,ELEM,,872
ESEL,A,ELEM,,886
ESEL,A,ELEM,,900
ESEL,A,ELEM,,914
ESEL,A,ELEM,,928
ESEL,A,ELEM,,942
ESEL,A,ELEM,,956
ESEL,A,ELEM,,970
ESEL,A,ELEM,,986
ESEL,A,ELEM,,992
ESEL,A,ELEM,,1008
ESEL,A,ELEM,,1024
ESEL,A,ELEM,,1030
ESEL,A,ELEM,,1036
ESEL,A,ELEM,,1038
ESEL,A,ELEM,,1042
ESEL,A,ELEM,,1044
ESEL,A,ELEM,,1050
ESEL,A,ELEM,,1056
ESEL,A,ELEM,,1062
ESEL,A,ELEM,,1068
ESEL,A,ELEM,,1070
ESEL,A,ELEM,,1074
ESEL,A,ELEM,,1076
ESEL,A,ELEM,,1082
ESEL,A,ELEM,,1088
ESEL,A,ELEM,,1104
ESEL,A,ELEM,,1120
ESEL,A,ELEM,,1126
ESEL,A,ELEM,,1132
ESEL,A,ELEM,,1134
ESEL,A,ELEM,,1138
ESEL,A,ELEM,,1140
ESEL,A,ELEM,,1142
ESEL,A,ELEM,,1144
ESEL,A,ELEM,,1146
ESEL,A,ELEM,,1148
ESEL,A,ELEM,,1150
ESEL,A,ELEM,,1154
ESEL,A,ELEM,,1156
ESEL,A,ELEM,,1162
ESEL,A,ELEM,,1168
ESEL,A,ELEM,,1184
ESEL,A,ELEM,,1200
ESEL,A,ELEM,,1206
ESEL,A,ELEM,,1222
ESEL,A,ELEM,,1236
ESEL,A,ELEM,,1250
ESEL,A,ELEM,,1264
ESEL,A,ELEM,,1278
ESEL,A,ELEM,,1292
ESEL,A,ELEM,,1306
ESEL,A,ELEM,,1320
ESEL,A,ELEM,,1334
ESEL,A,ELEM,,1348
ESEL,A,ELEM,,1362
ESEL,A,ELEM,,1378
ESEL,A,ELEM,,1384
ESEL,A,ELEM,,1400
ESEL,A,ELEM,,1416
ESEL,A,ELEM,,1422
ESEL,A,ELEM,,1428
ESEL,A,ELEM,,1430
ESEL,A,ELEM,,1434
ESEL,A,ELEM,,1436
ESEL,A,ELEM,,1438
ESEL,A,ELEM,,1440
ESEL,A,ELEM,,1442
ESEL,A,ELEM,,1444
ESEL,A,ELEM,,1446
ESEL,A,ELEM,,1450
ESEL,A,ELEM,,1452
ESEL,A,ELEM,,1458
ESEL,A,ELEM,,1464
ESEL,A,ELEM,,1480
ESEL,A,ELEM,,1496
ESEL,A,ELEM,,1502
ESEL,A,ELEM,,1518
ESEL,A,ELEM,,1532
ESEL,A,ELEM,,1546
ESEL,A,ELEM,,1560
ESEL,A,ELEM,,1574
ESEL,A,ELEM,,1588
ESEL,A,ELEM,,1602
ESEL,A,ELEM,,1616
ESEL,A,ELEM,,1630
ESEL,A,ELEM,,1644
ESEL,A,ELEM,,1658
ESEL,A,ELEM,,1674
ESEL,A,ELEM,,1680
ESEL,A,ELEM,,1696
ESEL,A,ELEM,,1712
ESEL,A,ELEM,,1718
ESEL,A,ELEM,,1724
ESEL,A,ELEM,,1726
ESEL,A,ELEM,,1730
ESEL,A,ELEM,,1732
ESEL,A,ELEM,,1734
ESEL,A,ELEM,,1736
ESEL,A,ELEM,,1738
ESEL,A,ELEM,,1740
ESEL,A,ELEM,,1742
ESEL,A,ELEM,,1746
ESEL,A,ELEM,,1748
ESEL,A,ELEM,,1754
ESEL,A,ELEM,,1760
ESEL,A,ELEM,,1776
ESEL,A,ELEM,,1792
ESEL,A,ELEM,,1808
ESEL,A,ELEM,,1824
ESEL,A,ELEM,,1830
ESEL,A,ELEM,,1838
ESEL,A,ELEM,,1844
ESEL,A,ELEM,,1850
ESEL,A,ELEM,,1856
ESEL,A,ELEM,,1862
ESEL,A,ELEM,,1868
ESEL,A,ELEM,,1874
ESEL,A,ELEM,,1882
ESEL,A,ELEM,,1888
ESEL,A,ELEM,,1904
ESEL,A,ELEM,,1920
ESEL,A,ELEM,,1936
CM,panel2,ELEM
ALLSEL,ALL
ESEL,NONE
ESEL,A,ELEM,,274
ESEL,A,ELEM,,275
ESEL,A,ELEM,,276
ESEL,A,ELEM,,277
ESEL,A,ELEM,,278
ESEL,A,ELEM,,279
ESEL,A,ELEM,,280
ESEL,A,ELEM,,281
ESEL,A,ELEM,,282
ESEL,A,ELEM,,283
ESEL,A,ELEM,,284
ESEL,A,ELEM,,285
ESEL,A,ELEM,,286
ESEL,A,ELEM,,287
ESEL,A,ELEM,,290
ESEL,A,ELEM,,291
ESEL,A,ELEM,,292
ESEL,A,ELEM,,293
ESEL,A,ELEM,,294
ESEL,A,ELEM,,295
ESEL,A,ELEM,,296
ESEL,A,ELEM,,297
ESEL,A,ELEM,,298
ESEL,A,ELEM,,299
ESEL,A,ELEM,,300
ESEL,A,ELEM,,301
ESEL,A,ELEM,,302
ESEL,A,ELEM,,303
ESEL,A,ELEM,,306
ESEL,A,ELEM,,307
ESEL,A,ELEM,,308
ESEL,A,ELEM,,309
ESEL,A,ELEM,,312
ESEL,A,ELEM,,313
ESEL,A,ELEM,,316
ESEL,A,ELEM,,317
ESEL,A,ELEM,,320
ESEL,A,ELEM,,321
ESEL,A,ELEM,,322
ESEL,A,ELEM,,323
ESEL,A,ELEM,,326
ESEL,A,ELEM,,327
ESEL,A,ELEM,,328
ESEL,A,ELEM,,329
ESEL,A,ELEM,,332
ESEL,A,ELEM,,333
ESEL,A,ELEM,,334
ESEL,A,ELEM,,335
ESEL,A,ELEM,,338
ESEL,A,ELEM,,339
ESEL,A,ELEM,,340
ESEL,A,ELEM,,341
ESEL,A,ELEM,,344
ESEL,A,ELEM,,345
ESEL,A,ELEM,,346
ESEL,A,ELEM,,347
ESEL,A,ELEM,,350
ESEL,A,ELEM,,351
ESEL,A,ELEM,,352
ESEL,A,ELEM,,353
ESEL,A,ELEM,,356
ESEL,A,ELEM,,357
ESEL,A,ELEM,,360
ESEL,A,ELEM,,361
ESEL,A,ELEM,,364
ESEL,A,ELEM,,365
ESEL,A,ELEM,,366
ESEL,A,ELEM,,367
ESEL,A,ELEM,,370
ESEL,A,ELEM,,371
ESEL,A,ELEM,,372
ESEL,A,ELEM,,373
ESEL,A,ELEM,,374
ESEL,A,ELEM,,375
ESEL,A,ELEM,,376
ESEL,A,ELEM,,377
ESEL,A,ELEM,,378
ESEL,A,ELEM,,379
ESEL,A,ELEM,,380
ESEL,A,ELEM,,381
ESEL,A,ELEM,,382
ESEL,A,ELEM,,383
ESEL,A,ELEM,,386
ESEL,A,ELEM,,387
ESEL,A,ELEM,,388
ESEL,A,ELEM,,389
ESEL,A,ELEM,,390
ESEL,A,ELEM,,391
ESEL,A,ELEM,,392
ESEL,A,ELEM,,393
ESEL,A,ELEM,,394
ESEL,A,ELEM,,395
ESEL,A,ELEM,,396
ESEL,A,ELEM,,397
ESEL,A,ELEM,,398
ESEL,A,ELEM,,399
ESEL,A,ELEM,,434
ESEL,A,ELEM,,435
ESEL,A,ELEM,,436
ESEL,A,ELEM,,437
ESEL,A,ELEM,,440
ESEL,A,ELEM,,441
ESEL,A,ELEM,,442
ESEL,A,ELEM,,443
ESEL,A,ELEM,,470
ESEL,A,ELEM,,471
ESEL,A,ELEM,,472
ESEL,A,ELEM,,473
ESEL,A,ELEM,,476
ESEL,A,ELEM,,477
ESEL,A,ELEM,,478
ESEL,A,ELEM,,479
ESEL,A,ELEM,,514
ESEL,A,ELEM,,515
ESEL,A,ELEM,,516
ESEL,A,ELEM,,517
ESEL,A,ELEM,,520
ESEL,A,ELEM,,521
ESEL,A,ELEM,,532
ESEL,A,ELEM,,533
ESEL,A,ELEM,,676
ESEL,A,ELEM,,677
ESEL,A,ELEM,,688
ESEL,A,ELEM,,689
ESEL,A,ELEM,,692
ESEL,A,ELEM,,693
ESEL,A,ELEM,,694
ESEL,A,ELEM,,695
ESEL,A,ELEM,,730
ESEL,A,ELEM,,731
ESEL,A,ELEM,,732
ESEL,A,ELEM,,733
ESEL,A,ELEM,,736
ESEL,A,ELEM,,737
ESEL,A,ELEM,,738
ESEL,A,ELEM,,739
ESEL,A,ELEM,,766
ESEL,A,ELEM,,767
ESEL,A,ELEM,,768
ESEL,A,ELEM,,769
ESEL,A,ELEM,,772
ESEL,A,ELEM,,773
ESEL,A,ELEM,,774
ESEL,A,ELEM,,775
ESEL,A,ELEM,,810
ESEL,A,ELEM,,811
ESEL,A,ELEM,,812
ESEL,A,ELEM,,813
ESEL,A,ELEM,,816
ESEL,A,ELEM,,817
ESEL,A,ELEM,,828
ESEL,A,ELEM,,829
ESEL,A,ELEM,,972
ESEL,A,ELEM,,973
ESEL,A,ELEM,,984
ESEL,A,ELEM,,985
ESEL,A,ELEM,,988
ESEL,A,ELEM,,989
ESEL,A,ELEM,,990
ESEL,A,ELEM,,991
ESEL,A,ELEM,,1026
ESEL,A,ELEM,,1027
ESEL,A,ELEM,,1028
ESEL,A,ELEM,,1029
ESEL,A,ELEM,,1032
ESEL,A,ELEM,,1033
ESEL,A,ELEM,,1034
ESEL,A,ELEM,,1035
ESEL,A,ELEM,,1078
ESEL,A,ELEM,,1079
ESEL,A,ELEM,,1080
ESEL,A,ELEM,,1081
ESEL,A,ELEM,,1084
ESEL,A,ELEM,,1085
ESEL,A,ELEM,,1086
ESEL,A,ELEM,,1087
ESEL,A,ELEM,,1122
ESEL,A,ELEM,,1123
ESEL,A,ELEM,,1124
ESEL,A,ELEM,,1125
ESEL,A,ELEM,,1128
ESEL,A,ELEM,,1129
ESEL,A,ELEM,,1130
ESEL,A,ELEM,,1131
ESEL,A,ELEM,,1158
ESEL,A,ELEM,,1159
ESEL,A,ELEM,,1160
ESEL,A,ELEM,,1161
ESEL,A,ELEM,,1164
ESEL,A,ELEM,,1165
ESEL,A,ELEM,,1166
ESEL,A,ELEM,,1167
ESEL,A,ELEM,,1202
ESEL,A,ELEM,,1203
ESEL,A,ELEM,,1204
ESEL,A,ELEM,,1205
ESEL,A,ELEM,,1208
ESEL,A,ELEM,,1209
ESEL,A,ELEM,,1220
ESEL,A,ELEM,,1221
ESEL,A,ELEM,,1364
ESEL,A,ELEM,,1365
ESEL,A,ELEM,,1376
ESEL,A,ELEM,,1377
ESEL,A,ELEM,,1380
ESEL,A,ELEM,,1381
ESEL,A,ELEM,,1382
ESEL,A,ELEM,,1383
ESEL,A,ELEM,,1418
ESEL,A,ELEM,,1419
ESEL,A,ELEM,,1420
ESEL,A,ELEM,,1421
ESEL,A,ELEM,,1424
ESEL,A,ELEM,,1425
ESEL,A,ELEM,,1426
ESEL,A,ELEM,,1427
ESEL,A,ELEM,,1454
ESEL,A,ELEM,,1455
ESEL,A,ELEM,,1456
ESEL,A,ELEM,,1457
ESEL,A,ELEM,,1460
ESEL,A,ELEM,,1461
ESEL,A,ELEM,,1462
ESEL,A,ELEM,,1463
ESEL,A,ELEM,,1498
ESEL,A,ELEM,,1499
ESEL,A,ELEM,,1500
ESEL,A,ELEM,,1501
ESEL,A,ELEM,,1504
ESEL,A,ELEM,,1505
ESEL,A,ELEM,,1516
ESEL,A,ELEM,,1517
ESEL,A,ELEM,,1660
ESEL,A,ELEM,,1661
ESEL,A,ELEM,,1672
ESEL,A,ELEM,,1673
ESEL,A,ELEM,,1676
ESEL,A,ELEM,,1677
ESEL,A,ELEM,,1678
ESEL,A,ELEM,,1679
ESEL,A,ELEM,,1714
ESEL,A,ELEM,,1715
ESEL,A,ELEM,,1716
ESEL,A,ELEM,,1717
ESEL,A,ELEM,,1720
ESEL,A,ELEM,,1721
ESEL,A,ELEM,,1722
ESEL,A,ELEM,,1723
ESEL,A,ELEM,,1750
ESEL,A,ELEM,,1751
ESEL,A,ELEM,,1752
ESEL,A,ELEM,,1753
ESEL,A,ELEM,,1756
ESEL,A,ELEM,,1757
ESEL,A,ELEM,,1758
ESEL,A,ELEM,,1759
ESEL,A,ELEM,,1794
ESEL,A,ELEM,,1795
ESEL,A,ELEM,,1796
ESEL,A,ELEM,,1797
ESEL,A,ELEM,,1798
ESEL,A,ELEM,,1799
ESEL,A,ELEM,,1800
ESEL,A,ELEM,,1801
ESEL,A,ELEM,,1802
ESEL,A,ELEM,,1803
ESEL,A,ELEM,,1804
ESEL,A,ELEM,,1805
ESEL,A,ELEM,,1806
ESEL,A,ELEM,,1807
ESEL,A,ELEM,,1810
ESEL,A,ELEM,,1811
ESEL,A,ELEM,,1812
ESEL,A,ELEM,,1813
ESEL,A,ELEM,,1814
ESEL,A,ELEM,,1815
ESEL,A,ELEM,,1816
ESEL,A,ELEM,,1817
ESEL,A,ELEM,,1818
ESEL,A,ELEM,,1819
ESEL,A,ELEM,,1820
ESEL,A,ELEM,,1821
ESEL,A,ELEM,,1822
ESEL,A,ELEM,,1823
ESEL,A,ELEM,,1826
ESEL,A,ELEM,,1827
ESEL,A,ELEM,,1828
ESEL,A,ELEM,,1829
ESEL,A,ELEM,,1832
ESEL,A,ELEM,,1833
ESEL,A,ELEM,,1836
ESEL,A,ELEM,,1837
ESEL,A,ELEM,,1840
ESEL,A,ELEM,,1841
ESEL,A,ELEM,,1842
ESEL,A,ELEM,,1843
ESEL,A,ELEM,,1846
ESEL,A,ELEM,,1847
ESEL,A,ELEM,,1848
ESEL,A,ELEM,,1849
ESEL,A,ELEM,,1852
ESEL,A,ELEM,,1853
ESEL,A,ELEM,,1854
ESEL,A,ELEM,,1855
ESEL,A,ELEM,,1858
ESEL,A,ELEM,,1859
ESEL,A,ELEM,,1860
ESEL,A,ELEM,,1861
ESEL,A,ELEM,,1864
ESEL,A,ELEM,,1865
ESEL,A,ELEM,,1866
ESEL,A,ELEM,,1867
ESEL,A,ELEM,,1870
ESEL,A,ELEM,,1871
ESEL,A,ELEM,,1872
ESEL,A,ELEM,,1873
ESEL,A,ELEM,,1876
ESEL,A,ELEM,,1877
ESEL,A,ELEM,,1880
ESEL,A,ELEM,,1881
ESEL,A,ELEM,,1884
ESEL,A,ELEM,,1885
ESEL,A,ELEM,,1886
ESEL,A,ELEM,,1887
ESEL,A,ELEM,,1890
ESEL,A,ELEM,,1891
ESEL,A,ELEM,,1892
ESEL,A,ELEM,,1893
ESEL,A,ELEM,,1894
ESEL,A,ELEM,,1895
ESEL,A,ELEM,,1896
ESEL,A,ELEM,,1897
ESEL,A,ELEM,,1898
ESEL,A,ELEM,,1899
ESEL,A,ELEM,,1900
ESEL,A,ELEM,,1901
ESEL,A,ELEM,,1902
ESEL,A,ELEM,,1903
ESEL,A,ELEM,,1906
ESEL,A,ELEM,,1907
ESEL,A,ELEM,,1908
ESEL,A,ELEM,,1909
ESEL,A,ELEM,,1910
ESEL,A,ELEM,,1911
ESEL,A,ELEM,,1912
ESEL,A,ELEM,,1913
ESEL,A,ELEM,,1914
ESEL,A,ELEM,,1915
ESEL,A,ELEM,,1916
ESEL,A,ELEM,,1917
ESEL,A,ELEM,,1918
ESEL,A,ELEM,,1919
CM,frame,ELEM
ALLSEL,ALL
ESEL,NONE
ESEL,A,ELEM,,314
ESEL,A,ELEM,,315
ESEL,A,ELEM,,358
ESEL,A,ELEM,,359
ESEL,A,ELEM,,448
ESEL,A,ELEM,,449
ESEL,A,ELEM,,464
ESEL,A,ELEM,,465
ESEL,A,ELEM,,552
ESEL,A,ELEM,,559
ESEL,A,ELEM,,650
ESEL,A,ELEM,,657
ESEL,A,ELEM,,744
ESEL,A,ELEM,,745
ESEL,A,ELEM,,760
ESEL,A,ELEM,,761
ESEL,A,ELEM,,848
ESEL,A,ELEM,,855
ESEL,A,ELEM,,946
ESEL,A,ELEM,,953
ESEL,A,ELEM,,1040
ESEL,A,ELEM,,1041
ESEL,A,ELEM,,1072
ESEL,A,ELEM,,1073
ESEL,A,ELEM,,1136
ESEL,A,ELEM,,1137
ESEL,A,ELEM,,1152
ESEL,A,ELEM,,1153
ESEL,A,ELEM,,1240
ESEL,A,ELEM,,1247
ESEL,A,ELEM,,1338
ESEL,A,ELEM,,1345
ESEL,A,ELEM,,1432
ESEL,A,ELEM,,1433
ESEL,A,ELEM,,1448
ESEL,A,ELEM,,1449
ESEL,A,ELEM,,1536
ESEL,A,ELEM,,1543
ESEL,A,ELEM,,1634
ESEL,A,ELEM,,1641
ESEL,A,ELEM,,1728
ESEL,A,ELEM,,1729
ESEL,A,ELEM,,1744
ESEL,A,ELEM,,1745
ESEL,A,ELEM,,1834
ESEL,A,ELEM,,1835
ESEL,A,ELEM,,1878
ESEL,A,ELEM,,1879
CM,bolts,ELEM
ALLSEL,ALL
ESEL,NONE
ESEL,A,ELEM,,402
ESEL,A,ELEM,,403
ESEL,A,ELEM,,404
ESEL,A,ELEM,,405
ESEL,A,ELEM,,406
ESEL,A,ELEM,,407
ESEL,A,ELEM,,408
ESEL,A,ELEM,,409
ESEL,A,ELEM,,410
ESEL,A,ELEM,,411
ESEL,A,ELEM,,412
ESEL,A,ELEM,,413
ESEL,A,ELEM,,414
ESEL,A,ELEM,,415
ESEL,A,ELEM,,482
ESEL,A,ELEM,,483
ESEL,A,ELEM,,484
ESEL,A,ELEM,,485
ESEL,A,ELEM,,486
ESEL,A,ELEM,,487
ESEL,A,ELEM,,488
ESEL,A,ELEM,,489
ESEL,A,ELEM,,490
ESEL,A,ELEM,,491
ESEL,A,ELEM,,492
ESEL,A,ELEM,,493
ESEL,A,ELEM,,494
ESEL,A,ELEM,,495
ESEL,A,ELEM,,698
ESEL,A,ELEM,,699
ESEL,A,ELEM,,700
ESEL,A,ELEM,,701
ESEL,A,ELEM,,702
ESEL,A,ELEM,,703
ESEL,A,ELEM,,704
ESEL,A,ELEM,,705
ESEL,A,ELEM,,706
ESEL,A,ELEM,,707
ESEL,A,ELEM,,708
ESEL,A,ELEM,,709
ESEL,A,ELEM,,710
ESEL,A,ELEM,,711
ESEL,A,ELEM,,778
ESEL,A,ELEM,,779
ESEL,A,ELEM,,780
ESEL,A,ELEM,,781
ESEL,A,ELEM,,782
ESEL,A,ELEM,,783
ESEL,A,ELEM,,784
ESEL,A,ELEM,,785
ESEL,A,ELEM,,786
ESEL,A,ELEM,,787
ESEL,A,ELEM,,788
ESEL,A,ELEM,,789
ESEL,A,ELEM,,790
ESEL,A,ELEM,,791
ESEL,A,ELEM,,994
ESEL,A,ELEM,,995
ESEL,A,ELEM,,996
ESEL,A,ELEM,,997
ESEL,A,ELEM,,998
ESEL,A,ELEM,,999
ESEL,A,ELEM,,1000
ESEL,A,ELEM,,1001
ESEL,A,ELEM,,1002
ESEL,A,ELEM,,1003
ESEL,A,ELEM,,1004
ESEL,A,ELEM,,1005
ESEL,A,ELEM,,1006
ESEL,A,ELEM,,1007
ESEL,A,ELEM,,1090
ESEL,A,ELEM,,1091
ESEL,A,ELEM,,1092
ESEL,A,ELEM,,1093
ESEL,A,ELEM,,1094
ESEL,A,ELEM,,1095
ESEL,A,ELEM,,1096
ESEL,A,ELEM,,1097
ESEL,A,ELEM,,1098
ESEL,A,ELEM,,1099
ESEL,A,ELEM,,1100
ESEL,A,ELEM,,1101
ESEL,A,ELEM,,1102
ESEL,A,ELEM,,1103
ESEL,A,ELEM,,1170
ESEL,A,ELEM,,1171
ESEL,A,ELEM,,1172
ESEL,A,ELEM,,1173
ESEL,A,ELEM,,1174
ESEL,A,ELEM,,1175
ESEL,A,ELEM,,1176
ESEL,A,ELEM,,1177
ESEL,A,ELEM,,1178
ESEL,A,ELEM,,1179
ESEL,A,ELEM,,1180
ESEL,A,ELEM,,1181
ESEL,A,ELEM,,1182
ESEL,A,ELEM,,1183
ESEL,A,ELEM,,1386
ESEL,A,ELEM,,1387
ESEL,A,ELEM,,1388
ESEL,A,ELEM,,1389
ESEL,A,ELEM,,1390
ESEL,A,ELEM,,1391
ESEL,A,ELEM,,1392
ESEL,A,ELEM,,1393
ESEL,A,ELEM,,1394
ESEL,A,ELEM,,1395
ESEL,A,ELEM,,1396
ESEL,A,ELEM,,1397
ESEL,A,ELEM,,1398
ESEL,A,ELEM,,1399
ESEL,A,ELEM,,1466
ESEL,A,ELEM,,1467
ESEL,A,ELEM,,1468
ESEL,A,ELEM,,1469
ESEL,A,ELEM,,1470
ESEL,A,ELEM,,1471
ESEL,A,ELEM,,1472
ESEL,A,ELEM,,1473
ESEL,A,ELEM,,1474
ESEL,A,ELEM,,1475
ESEL,A,ELEM,,1476
ESEL,A,ELEM,,1477
ESEL,A,ELEM,,1478
ESEL,A,ELEM,,1479
ESEL,A,ELEM,,1682
ESEL,A,ELEM,,1683
ESEL,A,ELEM,,1684
ESEL,A,ELEM,,1685
ESEL,A,ELEM,,1686
ESEL,A,ELEM,,1687
ESEL,A,ELEM,,1688
ESEL,A,ELEM,,1689
ESEL,A,ELEM,,1690
ESEL,A,ELEM,,1691
ESEL,A,ELEM,,1692
ESEL,A,ELEM,,1693
ESEL,A,ELEM,,1694
ESEL,A,ELEM,,1695
ESEL,A,ELEM,,1762
ESEL,A,ELEM,,1763
ESEL,A,ELEM,,1764
ESEL,A,ELEM,,1765
ESEL,A,ELEM,,1766
ESEL,A,ELEM,,1767
ESEL,A,ELEM,,1768
ESEL,A,ELEM,,1769
ESEL,A,ELEM,,1770
ESEL,A,ELEM,,1771
ESEL,A,ELEM,,1772
ESEL,A,ELEM,,1773
ESEL,A,ELEM,,1774
ESEL,A,ELEM,,1775
ESEL,A,ELEM,,1922
ESEL,A,ELEM,,1923
ESEL,A,ELEM,,1924
ESEL,A,ELEM,,1925
ESEL,A,ELEM,,1926
ESEL,A,ELEM,,1927
ESEL,A,ELEM,,1928
ESEL,A,ELEM,,1929
ESEL,A,ELEM,,1930
ESEL,A,ELEM,,1931
ESEL,A,ELEM,,1932
ESEL,A,ELEM,,1933
ESEL,A,ELEM,,1934
ESEL,A,ELEM,,1935
CM,panel4,ELEM
ALLSEL,ALL
ESEL,NONE
ESEL,A,ELEM,,522
ESEL,A,ELEM,,523
ESEL,A,ELEM,,524
ESEL,A,ELEM,,525
ESEL,A,ELEM,,526
ESEL,A,ELEM,,527
ESEL,A,ELEM,,528
ESEL,A,ELEM,,529
ESEL,A,ELEM,,530
ESEL,A,ELEM,,531
ESEL,A,ELEM,,536
ESEL,A,ELEM,,537
ESEL,A,ELEM,,538
ESEL,A,ELEM,,539
ESEL,A,ELEM,,540
ESEL,A,ELEM,,541
ESEL,A,ELEM,,542
ESEL,A,ELEM,,543
ESEL,A,ELEM,,544
ESEL,A,ELEM,,545
ESEL,A,ELEM,,546
ESEL,A,ELEM,,547
ESEL,A,ELEM,,550
ESEL,A,ELEM,,551
ESEL,A,ELEM,,553
ESEL,A,ELEM,,554
ESEL,A,ELEM,,555
ESEL,A,ELEM,,556
ESEL,A,ELEM,,557
ESEL,A,ELEM,,558
ESEL,A,ELEM,,560
ESEL,A,ELEM,,561
ESEL,A,ELEM,,564
ESEL,A,ELEM,,565
ESEL,A,ELEM,,566
ESEL,A,ELEM,,567
ESEL,A,ELEM,,568
ESEL,A,ELEM,,569
ESEL,A,ELEM,,570
ESEL,A,ELEM,,571
ESEL,A,ELEM,,572
ESEL,A,ELEM,,573
ESEL,A,ELEM,,574
ESEL,A,ELEM,,575
ESEL,A,ELEM,,578
ESEL,A,ELEM,,579
ESEL,A,ELEM,,580
ESEL,A,ELEM,,581
ESEL,A,ELEM,,582
ESEL,A,ELEM,,583
ESEL,A,ELEM,,584
ESEL,A,ELEM,,585
ESEL,A,ELEM,,586
ESEL,A,ELEM,,587
ESEL,A,ELEM,,588
ESEL,A,ELEM,,589
ESEL,A,ELEM,,592
ESEL,A,ELEM,,593
ESEL,A,ELEM,,594
ESEL,A,ELEM,,595
ESEL,A,ELEM,,596
ESEL,A,ELEM,,597
ESEL,A,ELEM,,598
ESEL,A,ELEM,,599
ESEL,A,ELEM,,600
ESEL,A,ELEM,,601
ESEL,A,ELEM,,602
ESEL,A,ELEM,,603
ESEL,A,ELEM,,606
ESEL,A,ELEM,,607
ESEL,A,ELEM,,608
ESEL,A,ELEM,,609
ESEL,A,ELEM,,610
ESEL,A,ELEM,,611
ESEL,A,ELEM,,612
ESEL,A,ELEM,,613
ESEL,A,ELEM,,614
ESEL,A,ELEM,,615
ESEL,A,ELEM,,616
ESEL,A,ELEM,,617
ESEL,A,ELEM,,620
ESEL,A,ELEM,,621
ESEL,A,ELEM,,622
ESEL,A,ELEM,,623
ESEL,A,ELEM,,624
ESEL,A,ELEM,,625
ESEL,A,ELEM,,626
ESEL,A,ELEM,,627
ESEL,A,ELEM,,628
ESEL,A,ELEM,,629
ESEL,A,ELEM,,630
ESEL,A,ELEM,,631
ESEL,A,ELEM,,634
ESEL,A,ELEM,,635
ESEL,A,ELEM,,636
ESEL,A,ELEM,,637
ESEL,A,ELEM,,638
ESEL,A,ELEM,,639
ESEL,A,ELEM,,640
ESEL,A,ELEM,,641
ESEL,A,ELEM,,642
ESEL,A,ELEM,,643
ESEL,A,ELEM,,644
ESEL,A,ELEM,,645
ESEL,A,ELEM,,648
ESEL,A,ELEM,,649
ESEL,A,ELEM,,651
ESEL,A,ELEM,,652
ESEL,A,ELEM,,653
ESEL,A,ELEM,,654
ESEL,A,ELEM,,655
ESEL,A,ELEM,,656
ESEL,A,ELEM,,658
ESEL,A,ELEM,,659
ESEL,A,ELEM,,662
ESEL,A,ELEM,,663
ESEL,A,ELEM,,664
ESEL,A,ELEM,,665
ESEL,A,ELEM,,666
ESEL,A,ELEM,,667
ESEL,A,ELEM,,668
ESEL,A,ELEM,,669
ESEL,A,ELEM,,670
ESEL,A,ELEM,,671
ESEL,A,ELEM,,672
ESEL,A,ELEM,,673
ESEL,A,ELEM,,678
ESEL,A,ELEM,,679
ESEL,A,ELEM,,680
ESEL,A,ELEM,,681
ESEL,A,ELEM,,682
ESEL,A,ELEM,,683
ESEL,A,ELEM,,684
ESEL,A,ELEM,,685
ESEL,A,ELEM,,686
ESEL,A,ELEM,,687
CM,pcb1,ELEM
ALLSEL,ALL
ESEL,NONE
ESEL,A,ELEM,,818
ESEL,A,ELEM,,819
ESEL,A,ELEM,,820
ESEL,A,ELEM,,821
ESEL,A,ELEM,,822
ESEL,A,ELEM,,823
ESEL,A,ELEM,,824
ESEL,A,ELEM,,825
ESEL,A,ELEM,,826
ESEL,A,ELEM,,827
ESEL,A,ELEM,,832
ESEL,A,ELEM,,833
ESEL,A,ELEM,,834
ESEL,A,ELEM,,835
ESEL,A,ELEM,,836
ESEL,A,ELEM,,837
ESEL,A,ELEM,,838
ESEL,A,ELEM,,839
ESEL,A,ELEM,,840
ESEL,A,ELEM,,841
ESEL,A,ELEM,,842
ESEL,A,ELEM,,843
ESEL,A,ELEM,,846
ESEL,A,ELEM,,847
ESEL,A,ELEM,,849
ESEL,A,ELEM,,850
ESEL,A,ELEM,,851
ESEL,A,ELEM,,852
ESEL,A,ELEM,,853
ESEL,A,ELEM,,854
ESEL,A,ELEM,,856
ESEL,A,ELEM,,857
ESEL,A,ELEM,,860
ESEL,A,ELEM,,861
ESEL,A,ELEM,,862
ESEL,A,ELEM,,863
ESEL,A,ELEM,,864
ESEL,A,ELEM,,865
ESEL,A,ELEM,,866
ESEL,A,ELEM,,867
ESEL,A,ELEM,,868
ESEL,A,ELEM,,869
ESEL,A,ELEM,,870
ESEL,A,ELEM,,871
ESEL,A,ELEM,,874
ESEL,A,ELEM,,875
ESEL,A,ELEM,,876
ESEL,A,ELEM,,877
ESEL,A,ELEM,,878
ESEL,A,ELEM,,879
ESEL,A,ELEM,,880
ESEL,A,ELEM,,881
ESEL,A,ELEM,,882
ESEL,A,ELEM,,883
ESEL,A,ELEM,,884
ESEL,A,ELEM,,885
ESEL,A,ELEM,,888
ESEL,A,ELEM,,889
ESEL,A,ELEM,,890
ESEL,A,ELEM,,891
ESEL,A,ELEM,,892
ESEL,A,ELEM,,893
ESEL,A,ELEM,,894
ESEL,A,ELEM,,895
ESEL,A,ELEM,,896
ESEL,A,ELEM,,897
ESEL,A,ELEM,,898
ESEL,A,ELEM,,899
ESEL,A,ELEM,,902
ESEL,A,ELEM,,903
ESEL,A,ELEM,,904
ESEL,A,ELEM,,905
ESEL,A,ELEM,,906
ESEL,A,ELEM,,907
ESEL,A,ELEM,,908
ESEL,A,ELEM,,909
ESEL,A,ELEM,,910
ESEL,A,ELEM,,911
ESEL,A,ELEM,,912
ESEL,A,ELEM,,913
ESEL,A,ELEM,,916
ESEL,A,ELEM,,917
ESEL,A,ELEM,,918
ESEL,A,ELEM,,919
ESEL,A,ELEM,,920
ESEL,A,ELEM,,921
ESEL,A,ELEM,,922
ESEL,A,ELEM,,923
ESEL,A,ELEM,,924
ESEL,A,ELEM,,925
ESEL,A,ELEM,,926
ESEL,A,ELEM,,927
ESEL,A,ELEM,,930
ESEL,A,ELEM,,931
ESEL,A,ELEM,,932
ESEL,A,ELEM,,933
ESEL,A,ELEM,,934
ESEL,A,ELEM,,935
ESEL,A,ELEM,,936
ESEL,A,ELEM,,937
ESEL,A,ELEM,,938
ESEL,A,ELEM,,939
ESEL,A,ELEM,,940
ESEL,A,ELEM,,941
ESEL,A,ELEM,,944
ESEL,A,ELEM,,945
ESEL,A,ELEM,,947
ESEL,A,ELEM,,948
ESEL,A,ELEM,,949
ESEL,A,ELEM,,950
ESEL,A,ELEM,,951
ESEL,A,ELEM,,952
ESEL,A,ELEM,,954
ESEL,A,ELEM,,955
ESEL,A,ELEM,,958
ESEL,A,ELEM,,959
ESEL,A,ELEM,,960
ESEL,A,ELEM,,961
ESEL,A,ELEM,,962
ESEL,A,ELEM,,963
ESEL,A,ELEM,,964
ESEL,A,ELEM,,965
ESEL,A,ELEM,,966
ESEL,A,ELEM,,967
ESEL,A,ELEM,,968
ESEL,A,ELEM,,969
ESEL,A,ELEM,,974
ESEL,A,ELEM,,975
ESEL,A,ELEM,,976
ESEL,A,ELEM,,977
ESEL,A,ELEM,,978
ESEL,A,ELEM,,979
ESEL,A,ELEM,,980
ESEL,A,ELEM,,981
ESEL,A,ELEM,,982
ESEL,A,ELEM,,983
CM,pcb2,ELEM
ALLSEL,ALL
ESEL,NONE
ESEL,A,ELEM,,1046
ESEL,A,ELEM,,1047
ESEL,A,ELEM,,1048
ESEL,A,ELEM,,1049
ESEL,A,ELEM,,1052
ESEL,A,ELEM,,1053
ESEL,A,ELEM,,1054
ESEL,A,ELEM,,1055
ESEL,A,ELEM,,1058
ESEL,A,ELEM,,1059
ESEL,A,ELEM,,1060
ESEL,A,ELEM,,1061
ESEL,A,ELEM,,1064
ESEL,A,ELEM,,1065
ESEL,A,ELEM,,1066
ESEL,A,ELEM,,1067
CM,battery,ELEM
ALLSEL,ALL
ESEL,NONE
ESEL,A,ELEM,,1210
ESEL,A,ELEM,,1211
ESEL,A,ELEM,,1212
ESEL,A,ELEM,,1213
ESEL,A,ELEM,,1214
ESEL,A,ELEM,,1215
ESEL,A,ELEM,,1216
ESEL,A,ELEM,,1217
ESEL,A,ELEM,,1218
ESEL,A,ELEM,,1219
ESEL,A,ELEM,,1224
ESEL,A,ELEM,,1225
ESEL,A,ELEM,,1226
ESEL,A,ELEM,,1227
ESEL,A,ELEM,,1228
ESEL,A,ELEM,,1229
ESEL,A,ELEM,,1230
ESEL,A,ELEM,,1231
ESEL,A,ELEM,,1232
ESEL,A,ELEM,,1233
ESEL,A,ELEM,,1234
ESEL,A,ELEM,,1235
ESEL,A,ELEM,,1238
ESEL,A,ELEM,,1239
ESEL,A,ELEM,,1241
ESEL,A,ELEM,,1242
ESEL,A,ELEM,,1243
ESEL,A,ELEM,,1244
ESEL,A,ELEM,,1245
ESEL,A,ELEM,,1246
ESEL,A,ELEM,,1248
ESEL,A,ELEM,,1249
ESEL,A,ELEM,,1252
ESEL,A,ELEM,,1253
ESEL,A,ELEM,,1254
ESEL,A,ELEM,,1255
ESEL,A,ELEM,,1256
ESEL,A,ELEM,,1257
ESEL,A,ELEM,,1258
ESEL,A,ELEM,,1259
ESEL,A,ELEM,,1260
ESEL,A,ELEM,,1261
ESEL,A,ELEM,,1262
ESEL,A,ELEM,,1263
ESEL,A,ELEM,,1266
ESEL,A,ELEM,,1267
ESEL,A,ELEM,,1268
ESEL,A,ELEM,,1269
ESEL,A,ELEM,,1270
ESEL,A,ELEM,,1271
ESEL,A,ELEM,,1272
ESEL,A,ELEM,,1273
ESEL,A,ELEM,,1274
ESEL,A,ELEM,,1275
ESEL,A,ELEM,,1276
ESEL,A,ELEM,,1277
ESEL,A,ELEM,,1280
ESEL,A,ELEM,,1281
ESEL,A,ELEM,,1282
ESEL,A,ELEM,,1283
ESEL,A,ELEM,,1284
ESEL,A,ELEM,,1285
ESEL,A,ELEM,,1286
ESEL,A,ELEM,,1287
ESEL,A,ELEM,,1288
ESEL,A,ELEM,,1289
ESEL,A,ELEM,,1290
ESEL,A,ELEM,,1291
ESEL,A,ELEM,,1294
ESEL,A,ELEM,,1295
ESEL,A,ELEM,,1296
ESEL,A,ELEM,,1297
ESEL,A,ELEM,,1298
ESEL,A,ELEM,,1299
ESEL,A,ELEM,,1300
ESEL,A,ELEM,,1301
ESEL,A,ELEM,,1302
ESEL,A,ELEM,,1303
ESEL,A,ELEM,,1304
ESEL,A,ELEM,,1305
ESEL,A,ELEM,,1308
ESEL,A,ELEM,,1309
ESEL,A,ELEM,,1310
ESEL,A,ELEM,,1311
ESEL,A,ELEM,,1312
ESEL,A,ELEM,,1313
ESEL,A,ELEM,,1314
ESEL,A,ELEM,,1315
ESEL,A,ELEM,,1316
ESEL,A,ELEM,,1317
ESEL,A,ELEM,,1318
ESEL,A,ELEM,,1319
ESEL,A,ELEM,,1322
ESEL,A,ELEM,,1323
ESEL,A,ELEM,,1324
ESEL,A,ELEM,,1325
ESEL,A,ELEM,,1326
ESEL,A,ELEM,,1327
ESEL,A,ELEM,,1328
ESEL,A,ELEM,,1329
ESEL,A,ELEM,,1330
ESEL,A,ELEM,,1331
ESEL,A,ELEM,,1332
ESEL,A,ELEM,,1333
ESEL,A,ELEM,,1336
ESEL,A,ELEM,,1337
ESEL,A,ELEM,,1339
ESEL,A,ELEM,,1340
ESEL,A,ELEM,,1341
ESEL,A,ELEM,,1342
ESEL,A,ELEM,,1343
ESEL,A,ELEM,,1344
ESEL,A,ELEM,,1346
ESEL,A,ELEM,,1347
ESEL,A,ELEM,,1350
ESEL,A,ELEM,,1351
ESEL,A,ELEM,,1352
ESEL,A,ELEM,,1353
ESEL,A,ELEM,,1354
ESEL,A,ELEM,,1355
ESEL,A,ELEM,,1356
ESEL,A,ELEM,,1357
ESEL,A,ELEM,,1358
ESEL,A,ELEM,,1359
ESEL,A,ELEM,,1360
ESEL,A,ELEM,,1361
ESEL,A,ELEM,,1366
ESEL,A,ELEM,,1367
ESEL,A,ELEM,,1368
ESEL,A,ELEM,,1369
ESEL,A,ELEM,,1370
ESEL,A,ELEM,,1371
ESEL,A,ELEM,,1372
ESEL,A,ELEM,,1373
ESEL,A,ELEM,,1374
ESEL,A,ELEM,,1375
CM,pcb3,ELEM
ALLSEL,ALL
ESEL,NONE
ESEL,A,ELEM,,1506
ESEL,A,ELEM,,1507
ESEL,A,ELEM,,1508
ESEL,A,ELEM,,1509
ESEL,A,ELEM,,1510
ESEL,A,ELEM,,1511
ESEL,A,ELEM,,1512
ESEL,A,ELEM,,1513
ESEL,A,ELEM,,1514
ESEL,A,ELEM,,1515
ESEL,A,ELEM,,1520
ESEL,A,ELEM,,1521
ESEL,A,ELEM,,1522
ESEL,A,ELEM,,1523
ESEL,A,ELEM,,1524
ESEL,A,ELEM,,1525
ESEL,A,ELEM,,1526
ESEL,A,ELEM,,1527
ESEL,A,ELEM,,1528
ESEL,A,ELEM,,1529
ESEL,A,ELEM,,1530
ESEL,A,ELEM,,1531
ESEL,A,ELEM,,1534
ESEL,A,ELEM,,1535
ESEL,A,ELEM,,1537
ESEL,A,ELEM,,1538
ESEL,A,ELEM,,1539
ESEL,A,ELEM,,1540
ESEL,A,ELEM,,1541
ESEL,A,ELEM,,1542
ESEL,A,ELEM,,1544
ESEL,A,ELEM,,1545
ESEL,A,ELEM,,1548
ESEL,A,ELEM,,1549
ESEL,A,ELEM,,1550
ESEL,A,ELEM,,1551
ESEL,A,ELEM,,1552
ESEL,A,ELEM,,1553
ESEL,A,ELEM,,1554
ESEL,A,ELEM,,1555
ESEL,A,ELEM,,1556
ESEL,A,ELEM,,1557
ESEL,A,ELEM,,1558
ESEL,A,ELEM,,1559
ESEL,A,ELEM,,1562
ESEL,A,ELEM,,1563
ESEL,A,ELEM,,1564
ESEL,A,ELEM,,1565
ESEL,A,ELEM,,1566
ESEL,A,ELEM,,1567
ESEL,A,ELEM,,1568
ESEL,A,ELEM,,1569
ESEL,A,ELEM,,1570
ESEL,A,ELEM,,1571
ESEL,A,ELEM,,1572
ESEL,A,ELEM,,1573
ESEL,A,ELEM,,1576
ESEL,A,ELEM,,1577
ESEL,A,ELEM,,1578
ESEL,A,ELEM,,1579
ESEL,A,ELEM,,1580
ESEL,A,ELEM,,1581
ESEL,A,ELEM,,1582
ESEL,A,ELEM,,1583
ESEL,A,ELEM,,1584
ESEL,A,ELEM,,1585
ESEL,A,ELEM,,1586
ESEL,A,ELEM,,1587
ESEL,A,ELEM,,1590
ESEL,A,ELEM,,1591
ESEL,A,ELEM,,1592
ESEL,A,ELEM,,1593
ESEL,A,ELEM,,1594
ESEL,A,ELEM,,1595
ESEL,A,ELEM,,1596
ESEL,A,ELEM,,1597
ESEL,A,ELEM,,1598
ESEL,A,ELEM,,1599
ESEL,A,ELEM,,1600
ESEL,A,ELEM,,1601
ESEL,A,ELEM,,1604
ESEL,A,ELEM,,1605
ESEL,A,ELEM,,1606
ESEL,A,ELEM,,1607
ESEL,A,ELEM,,1608
ESEL,A,ELEM,,1609
ESEL,A,ELEM,,1610
ESEL,A,ELEM,,1611
ESEL,A,ELEM,,1612
ESEL,A,ELEM,,1613
ESEL,A,ELEM,,1614
ESEL,A,ELEM,,1615
ESEL,A,ELEM,,1618
ESEL,A,ELEM,,1619
ESEL,A,ELEM,,1620
ESEL,A,ELEM,,1621
ESEL,A,ELEM,,1622
ESEL,A,ELEM,,1623
ESEL,A,ELEM,,1624
ESEL,A,ELEM,,1625
ESEL,A,ELEM,,1626
ESEL,A,ELEM,,1627
ESEL,A,ELEM,,1628
ESEL,A,ELEM,,1629
ESEL,A,ELEM,,1632
ESEL,A,ELEM,,1633
ESEL,A,ELEM,,1635
ESEL,A,ELEM,,1636
ESEL,A,ELEM,,1637
ESEL,A,ELEM,,1638
ESEL,A,ELEM,,1639
ESEL,A,ELEM,,1640
ESEL,A,ELEM,,1642
ESEL,A,ELEM,,1643
ESEL,A,ELEM,,1646
ESEL,A,ELEM,,1647
ESEL,A,ELEM,,1648
ESEL,A,ELEM,,1649
ESEL,A,ELEM,,1650
ESEL,A,ELEM,,1651
ESEL,A,ELEM,,1652
ESEL,A,ELEM,,1653
ESEL,A,ELEM,,1654
ESEL,A,ELEM,,1655
ESEL,A,ELEM,,1656
ESEL,A,ELEM,,1657
ESEL,A,ELEM,,1662
ESEL,A,ELEM,,1663
ESEL,A,ELEM,,1664
ESEL,A,ELEM,,1665
ESEL,A,ELEM,,1666
ESEL,A,ELEM,,1667
ESEL,A,ELEM,,1668
ESEL,A,ELEM,,1669
ESEL,A,ELEM,,1670
ESEL,A,ELEM,,1671
CM,pcb4,ELEM
ALLSEL,ALL
ESEL,NONE
ESEL,A,ELEM,,1937
ESEL,A,ELEM,,1938
ESEL,A,ELEM,,1939
ESEL,A,ELEM,,1940
ESEL,A,ELEM,,1941
ESEL,A,ELEM,,1942
ESEL,A,ELEM,,1943
ESEL,A,ELEM,,1944
ESEL,A,ELEM,,1945
ESEL,A,ELEM,,1946
ESEL,A,ELEM,,1947
ESEL,A,ELEM,,1948
ESEL,A,ELEM,,1949
ESEL,A,ELEM,,1950
ESEL,A,ELEM,,1951
ESEL,A,ELEM,,1952
ESEL,A,ELEM,,1953
ESEL,A,ELEM,,1954
ESEL,A,ELEM,,1955
ESEL,A,ELEM,,1956
ESEL,A,ELEM,,1957
ESEL,A,ELEM,,1958
ESEL,A,ELEM,,1959
ESEL,A,ELEM,,1960
ESEL,A,ELEM,,1961
ESEL,A,ELEM,,1962
ESEL,A,ELEM,,1963
ESEL,A,ELEM,,1964
ESEL,A,ELEM,,1965
ESEL,A,ELEM,,1966
ESEL,A,ELEM,,1967
ESEL,A,ELEM,,1968
ESEL,A,ELEM,,1969
ESEL,A,ELEM,,1970
ESEL,A,ELEM,,1971
ESEL,A,ELEM,,1972
ESEL,A,ELEM,,1973
ESEL,A,ELEM,,1974
ESEL,A,ELEM,,1975
ESEL,A,ELEM,,1976
ESEL,A,ELEM,,1977
ESEL,A,ELEM,,1978
ESEL,A,ELEM,,1979
ESEL,A,ELEM,,1980
ESEL,A,ELEM,,1981
ESEL,A,ELEM,,1982
ESEL,A,ELEM,,1983
ESEL,A,ELEM,,1984
ESEL,A,ELEM,,1985
ESEL,A,ELEM,,1986
ESEL,A,ELEM,,1987
ESEL,A,ELEM,,1988
ESEL,A,ELEM,,1989
ESEL,A,ELEM,,1990
ESEL,A,ELEM,,1991
ESEL,A,ELEM,,1992
ESEL,A,ELEM,,1993
ESEL,A,ELEM,,1994
ESEL,A,ELEM,,1995
ESEL,A,ELEM,,1996
ESEL,A,ELEM,,1997
ESEL,A,ELEM,,1998
ESEL,A,ELEM,,1999
ESEL,A,ELEM,,2000
ESEL,A,ELEM,,2001
ESEL,A,ELEM,,2002
ESEL,A,ELEM,,2003
ESEL,A,ELEM,,2004
ESEL,A,ELEM,,2005
ESEL,A,ELEM,,2006
ESEL,A,ELEM,,2007
ESEL,A,ELEM,,2008
ESEL,A,ELEM,,2009
ESEL,A,ELEM,,2010
ESEL,A,ELEM,,2011
ESEL,A,ELEM,,2012
ESEL,A,ELEM,,2013
ESEL,A,ELEM,,2014
ESEL,A,ELEM,,2015
ESEL,A,ELEM,,2016
ESEL,A,ELEM,,2017
ESEL,A,ELEM,,2018
ESEL,A,ELEM,,2019
ESEL,A,ELEM,,2020
ESEL,A,ELEM,,2021
ESEL,A,ELEM,,2022
ESEL,A,ELEM,,2023
ESEL,A,ELEM,,2024
ESEL,A,ELEM,,2025
ESEL,A,ELEM,,2026
ESEL,A,ELEM,,2027
ESEL,A,ELEM,,2028
ESEL,A,ELEM,,2029
ESEL,A,ELEM,,2030
ESEL,A,ELEM,,2031
ESEL,A,ELEM,,2032
ESEL,A,ELEM,,2033
ESEL,A,ELEM,,2034
ESEL,A,ELEM,,2035
ESEL,A,ELEM,,2036
ESEL,A,ELEM,,2037
ESEL,A,ELEM,,2038
ESEL,A,ELEM,,2039
ESEL,A,ELEM,,2040
ESEL,A,ELEM,,2041
ESEL,A,ELEM,,2042
ESEL,A,ELEM,,2043
ESEL,A,ELEM,,2044
ESEL,A,ELEM,,2045
ESEL,A,ELEM,,2046
ESEL,A,ELEM,,2047
ESEL,A,ELEM,,2048
ESEL,A,ELEM,,2049
ESEL,A,ELEM,,2050
ESEL,A,ELEM,,2051
ESEL,A,ELEM,,2052
ESEL,A,ELEM,,2053
ESEL,A,ELEM,,2054
ESEL,A,ELEM,,2055
ESEL,A,ELEM,,2056
ESEL,A,ELEM,,2057
ESEL,A,ELEM,,2058
ESEL,A,ELEM,,2059
ESEL,A,ELEM,,2060
ESEL,A,ELEM,,2061
ESEL,A,ELEM,,2062
ESEL,A,ELEM,,2063
ESEL,A,ELEM,,2064
ESEL,A,ELEM,,2065
ESEL,A,ELEM,,2066
ESEL,A,ELEM,,2067
ESEL,A,ELEM,,2068
ESEL,A,ELEM,,2069
ESEL,A,ELEM,,2070
ESEL,A,ELEM,,2071
ESEL,A,ELEM,,2072
ESEL,A,ELEM,,2073
ESEL,A,ELEM,,2074
ESEL,A,ELEM,,2075
ESEL,A,ELEM,,2076
ESEL,A,ELEM,,2077
ESEL,A,ELEM,,2078
ESEL,A,ELEM,,2079
ESEL,A,ELEM,,2080
ESEL,A,ELEM,,2081
ESEL,A,ELEM,,2082
ESEL,A,ELEM,,2083
ESEL,A,ELEM,,2084
ESEL,A,ELEM,,2085
ESEL,A,ELEM,,2086
ESEL,A,ELEM,,2087
ESEL,A,ELEM,,2088
ESEL,A,ELEM,,2089
ESEL,A,ELEM,,2090
ESEL,A,ELEM,,2091
ESEL,A,ELEM,,2092
ESEL,A,ELEM,,2093
ESEL,A,ELEM,,2094
ESEL,A,ELEM,,2095
ESEL,A,ELEM,,2096
ESEL,A,ELEM,,2097
ESEL,A,ELEM,,2098
ESEL,A,ELEM,,2099
ESEL,A,ELEM,,2100
ESEL,A,ELEM,,2101
ESEL,A,ELEM,,2102
ESEL,A,ELEM,,2103
ESEL,A,ELEM,,2104
ESEL,A,ELEM,,2105
ESEL,A,ELEM,,2106
ESEL,A,ELEM,,2107
ESEL,A,ELEM,,2108
ESEL,A,ELEM,,2109
ESEL,A,ELEM,,2110
ESEL,A,ELEM,,2111
ESEL,A,ELEM,,2112
ESEL,A,ELEM,,2113
ESEL,A,ELEM,,2114
ESEL,A,ELEM,,2115
ESEL,A,ELEM,,2116
ESEL,A,ELEM,,2117
ESEL,A,ELEM,,2118
ESEL,A,ELEM,,2119
ESEL,A,ELEM,,2120
ESEL,A,ELEM,,2121
ESEL,A,ELEM,,2122
ESEL,A,ELEM,,2123
ESEL,A,ELEM,,2124
ESEL,A,ELEM,,2125
ESEL,A,ELEM,,2126
ESEL,A,ELEM,,2127
ESEL,A,ELEM,,2128
ESEL,A,ELEM,,2129
ESEL,A,ELEM,,2130
ESEL,A,ELEM,,2131
ESEL,A,ELEM,,2132
ESEL,A,ELEM,,2133
ESEL,A,ELEM,,2134
ESEL,A,ELEM,,2135
ESEL,A,ELEM,,2136
ESEL,A,ELEM,,2137
ESEL,A,ELEM,,2138
ESEL,A,ELEM,,2139
ESEL,A,ELEM,,2140
ESEL,A,ELEM,,2141
ESEL,A,ELEM,,2142
ESEL,A,ELEM,,2143
ESEL,A,ELEM,,2144
ESEL,A,ELEM,,2145
ESEL,A,ELEM,,2146
ESEL,A,ELEM,,2147
ESEL,A,ELEM,,2148
ESEL,A,ELEM,,2149
ESEL,A,ELEM,,2150
ESEL,A,ELEM,,2151
ESEL,A,ELEM,,2152
ESEL,A,ELEM,,2153
ESEL,A,ELEM,,2154
ESEL,A,ELEM,,2155
ESEL,A,ELEM,,2156
ESEL,A,ELEM,,2157
ESEL,A,ELEM,,2158
ESEL,A,ELEM,,2159
ESEL,A,ELEM,,2160
ESEL,A,ELEM,,2161
ESEL,A,ELEM,,2162
ESEL,A,ELEM,,2163
ESEL,A,ELEM,,2164
ESEL,A,ELEM,,2165
ESEL,A,ELEM,,2166
ESEL,A,ELEM,,2167
ESEL,A,ELEM,,2168
ESEL,A,ELEM,,2169
ESEL,A,ELEM,,2170
ESEL,A,ELEM,,2171
ESEL,A,ELEM,,2172
ESEL,A,ELEM,,2173
ESEL,A,ELEM,,2174
ESEL,A,ELEM,,2175
ESEL,A,ELEM,,2176
ESEL,A,ELEM,,2177
ESEL,A,ELEM,,2178
ESEL,A,ELEM,,2179
ESEL,A,ELEM,,2180
ESEL,A,ELEM,,2181
ESEL,A,ELEM,,2182
ESEL,A,ELEM,,2183
ESEL,A,ELEM,,2184
ESEL,A,ELEM,,2185
ESEL,A,ELEM,,2186
ESEL,A,ELEM,,2187
ESEL,A,ELEM,,2188
ESEL,A,ELEM,,2189
ESEL,A,ELEM,,2190
ESEL,A,ELEM,,2191
ESEL,A,ELEM,,2192
CM,panel6,ELEM
ALLSEL,ALL
*DIM,Q1,TABLE,1117,1,1,TIME
Q1(1,0)=0
Q1(1,1)=1052.55580063
Q1(2,0)=10
Q1(2,1)=1052.58461389
Q1(3,0)=20
Q1(3,1)=1052.47996941
Q1(4,0)=30
Q1(4,1)=1052.24188046
Q1(5,0)=40
Q1(5,1)=1051.87037722
Q1(6,0)=50
Q1(6,1)=1051.36550679
Q1(7,0)=60
Q1(7,1)=1050.7273332
Q1(8,0)=70
Q1(8,1)=1049.95593736
Q1(9,0)=80
Q1(9,1)=1049.05141706
Q1(10,0)=90
Q1(10,1)=1048.013887
Q1(11,0)=100
Q1(11,1)=1046.84347873
Q1(12,0)=110
Q1(12,1)=1045.54034063
Q1(13,0)=120
Q1(13,1)=1044.10463795
Q1(14,0)=130
Q1(14,1)=1042.5365527
Q1(15,0)=140
Q1(15,1)=1040.83628371
Q1(16,0)=150
Q1(16,1)=1039.00404656
Q1(17,0)=160
Q1(17,1)=1037.04007355
Q1(18,0)=170
Q1(18,1)=1034.9446137
Q1(19,0)=180
Q1(19,1)=1032.7179327
Q1(20,0)=190
Q1(20,1)=1030.36031287
Q1(21,0)=200
Q1(21,1)=1027.87205312
Q1(22,0)=210
Q1(22,1)=1025.25346895
Q1(23,0)=220
Q1(23,1)=1022.50489237
Q1(24,0)=230
Q1(24,1)=1019.62667188
Q1(25,0)=240
Q1(25,1)=1016.6191724
Q1(26,0)=250
Q1(26,1)=1013.48277525
Q1(27,0)=260
Q1(27,1)=1010.21787811
Q1(28,0)=270
Q1(28,1)=1006.82489492
Q1(29,0)=280
Q1(29,1)=1003.30425589
Q1(30,0)=290
Q1(30,1)=999.656407409
Q1(31,0)=300
Q1(31,1)=995.881811977
Q1(32,0)=310
Q1(32,1)=991.980948182
Q1(33,0)=320
Q1(33,1)=987.954310617
Q1(34,0)=330
Q1(34,1)=983.80240982
Q1(35,0)=340
Q1(35,1)=979.525772214
Q1(36,0)=350
Q1(36,1)=975.124940034
Q1(37,0)=360
Q1(37,1)=970.600471266
Q1(38,0)=370
Q1(38,1)=965.952939569
Q1(39,0)=380
Q1(39,1)=961.182934206
Q1(40,0)=390
Q1(40,1)=956.291059968
Q1(41,0)=400
Q1(41,1)=951.277937098
Q1(42,0)=410
Q1(42,1)=946.144201213
Q1(43,0)=420
Q1(43,1)=940.890503222
Q1(44,0)=430
Q1(44,1)=935.517509244
Q1(45,0)=440
Q1(45,1)=930.025900523
Q1(46,0)=450
Q1(46,1)=924.416373344
Q1(47,0)=460
Q1(47,1)=918.689638941
Q1(48,0)=470
Q1(48,1)=912.84642341
Q1(49,0)=480
Q1(49,1)=906.887467615
Q1(50,0)=490
Q1(50,1)=900.813527095
Q1(51,0)=500
Q1(51,1)=894.625371968
Q1(52,0)=510
Q1(52,1)=888.323786833
Q1(53,0)=520
Q1(53,1)=881.909570672
Q1(54,0)=530
Q1(54,1)=875.383536747
Q1(55,0)=540
Q1(55,1)=868.746512496
Q1(56,0)=550
Q1(56,1)=861.999339432
Q1(57,0)=560
Q1(57,1)=855.142873031
Q1(58,0)=570
Q1(58,1)=848.177982629
Q1(59,0)=580
Q1(59,1)=841.105551308
Q1(60,0)=590
Q1(60,1)=833.926475784
Q1(61,0)=600
Q1(61,1)=826.641666297
Q1(62,0)=610
Q1(62,1)=819.252046491
Q1(63,0)=620
Q1(63,1)=811.7585533
Q1(64,0)=630
Q1(64,1)=804.162136828
Q1(65,0)=640
Q1(65,1)=796.463760228
Q1(66,0)=650
Q1(66,1)=788.664399582
Q1(67,0)=660
Q1(67,1)=780.765043773
Q1(68,0)=670
Q1(68,1)=772.766694367
Q1(69,0)=680
Q1(69,1)=764.670365476
Q1(70,0)=690
Q1(70,1)=756.47708364
Q1(71,0)=700
Q1(71,1)=748.187887688
Q1(72,0)=710
Q1(72,1)=739.803828612
Q1(73,0)=720
Q1(73,1)=731.325969431
Q1(74,0)=730
Q1(74,1)=722.755385057
Q1(75,0)=740
Q1(75,1)=714.093162159
Q1(76,0)=750
Q1(76,1)=705.340399025
Q1(77,0)=760
Q1(77,1)=696.498205421
Q1(78,0)=770
Q1(78,1)=687.567702454
Q1(79,0)=780
Q1(79,1)=678.550022427
Q1(80,0)=790
Q1(80,1)=669.446308697
Q1(81,0)=800
Q1(81,1)=660.257715528
Q1(82,0)=810
Q1(82,1)=650.985407946
Q1(83,0)=820
Q1(83,1)=641.630561591
Q1(84,0)=830
Q1(84,1)=632.19436257
Q1(85,0)=840
Q1(85,1)=622.678007304
Q1(86,0)=850
Q1(86,1)=613.082702375
Q1(87,0)=860
Q1(87,1)=603.409664377
Q1(88,0)=870
Q1(88,1)=593.66011976
Q1(89,0)=880
Q1(89,1)=583.835304673
Q1(90,0)=890
Q1(90,1)=573.936464811
Q1(91,0)=900
Q1(91,1)=563.96485525
Q1(92,0)=910
Q1(92,1)=553.921740298
Q1(93,0)=920
Q1(93,1)=543.808393326
Q1(94,0)=930
Q1(94,1)=533.62609661
Q1(95,0)=940
Q1(95,1)=523.376141169
Q1(96,0)=950
Q1(96,1)=513.0598266
Q1(97,0)=960
Q1(97,1)=502.678460913
Q1(98,0)=970
Q1(98,1)=492.233360368
Q1(99,0)=980
Q1(99,1)=481.725849304
Q1(100,0)=990
Q1(100,1)=471.157259974
Q1(101,0)=1000
Q1(101,1)=460.528932374
Q1(102,0)=1010
Q1(102,1)=449.842214076
Q1(103,0)=1020
Q1(103,1)=439.098460054
Q1(104,0)=1030
Q1(104,1)=428.299032514
Q1(105,0)=1040
Q1(105,1)=417.445300721
Q1(106,0)=1050
Q1(106,1)=406.538640825
Q1(107,0)=1060
Q1(107,1)=395.580435688
Q1(108,0)=1070
Q1(108,1)=384.572074705
Q1(109,0)=1080
Q1(109,1)=373.514953633
Q1(110,0)=1090
Q1(110,1)=362.410474409
Q1(111,0)=1100
Q1(111,1)=351.260044975
Q1(112,0)=1110
Q1(112,1)=340.065079102
Q1(113,0)=1120
Q1(113,1)=328.826996204
Q1(114,0)=1130
Q1(114,1)=317.547221163
Q1(115,0)=1140
Q1(115,1)=306.227184147
Q1(116,0)=1150
Q1(116,1)=294.868320431
Q1(117,0)=1160
Q1(117,1)=283.47207021
Q1(118,0)=1170
Q1(118,1)=272.03987842
Q1(119,0)=1180
Q1(119,1)=260.573194556
Q1(120,0)=1190
Q1(120,1)=249.073472483
Q1(121,0)=1200
Q1(121,1)=237.542170257
Q1(122,0)=1210
Q1(122,1)=225.980749939
Q1(123,0)=1220
Q1(123,1)=214.390677405
Q1(124,0)=1230
Q1(124,1)=202.773422169
Q1(125,0)=1240
Q1(125,1)=191.130457186
Q1(126,0)=1250
Q1(126,1)=179.463258676
Q1(127,0)=1260
Q1(127,1)=167.773305927
Q1(128,0)=1270
Q1(128,1)=156.062081115
Q1(129,0)=1280
Q1(129,1)=144.331069112
Q1(130,0)=1290
Q1(130,1)=132.5817573
Q1(131,0)=1300
Q1(131,1)=120.815635378
Q1(132,0)=1310
Q1(132,1)=109.034195181
Q1(133,0)=1320
Q1(133,1)=97.2389304821
Q1(134,0)=1330
Q1(134,1)=85.4313368098
Q1(135,0)=1340
Q1(135,1)=73.6129112547
Q1(136,0)=1350
Q1(136,1)=61.785152281
Q1(137,0)=1360
Q1(137,1)=49.9495595363
Q1(138,0)=1370
Q1(138,1)=38.1076336614
Q1(139,0)=1380
Q1(139,1)=26.2608761003
Q1(140,0)=1390
Q1(140,1)=14.4107889092
Q1(141,0)=1400
Q1(141,1)=2.55887456691
Q1(142,0)=1410
Q1(142,1)=0
Q1(143,0)=1420
Q1(143,1)=0
Q1(144,0)=1430
Q1(144,1)=0
Q1(145,0)=1440
Q1(145,1)=0
Q1(146,0)=1450
Q1(146,1)=0
Q1(147,0)=1460
Q1(147,1)=0
Q1(148,0)=1470
Q1(148,1)=0
Q1(149,0)=1480
Q1(149,1)=0
Q1(150,0)=1490
Q1(150,1)=0
Q1(151,0)=1500
Q1(151,1)=0
Q1(152,0)=1510
Q1(152,1)=0
Q1(153,0)=1520
Q1(153,1)=0
Q1(154,0)=1530
Q1(154,1)=0
Q1(155,0)=1540
Q1(155,1)=0
Q1(156,0)=1550
Q1(156,1)=0
Q1(157,0)=1560
Q1(157,1)=0
Q1(158,0)=1570
Q1(158,1)=0
Q1(159,0)=1580
Q1(159,1)=0
Q1(160,0)=1590
Q1(160,1)=0
Q1(161,0)=1600
Q1(161,1)=0
Q1(162,0)=1610
Q1(162,1)=0
Q1(163,0)=1620
Q1(163,1)=0
Q1(164,0)=1630
Q1(164,1)=0
Q1(165,0)=1640
Q1(165,1)=0
Q1(166,0)=1650
Q1(166,1)=0
Q1(167,0)=1660
Q1(167,1)=0
Q1(168,0)=1670
Q1(168,1)=0
Q1(169,0)=1680
Q1(169,1)=0
Q1(170,0)=1690
Q1(170,1)=0
Q1(171,0)=1700
Q1(171,1)=0
Q1(172,0)=1710
Q1(172,1)=0
Q1(173,0)=1720
Q1(173,1)=0
Q1(174,0)=1730
Q1(174,1)=0
Q1(175,0)=1740
Q1(175,1)=0
Q1(176,0)=1750
Q1(176,1)=0
Q1(177,0)=1760
Q1(177,1)=0
Q1(178,0)=1770
Q1(178,1)=0
Q1(179,0)=1780
Q1(179,1)=0
Q1(180,0)=1790
Q1(180,1)=0
Q1(181,0)=1800
Q1(181,1)=0
Q1(182,0)=1810
Q1(182,1)=0
Q1(183,0)=1820
Q1(183,1)=0
Q1(184,0)=1830
Q1(184,1)=0
Q1(185,0)=1840
Q1(185,1)=0
Q1(186,0)=1850
Q1(186,1)=0
Q1(187,0)=1860
Q1(187,1)=0
Q1(188,0)=1870
Q1(188,1)=0
Q1(189,0)=1880
Q1(189,1)=0
Q1(190,0)=1890
Q1(190,1)=0
Q1(191,0)=1900
Q1(191,1)=0
Q1(192,0)=1910
Q1(192,1)=0
Q1(193,0)=1920
Q1(193,1)=0
Q1(194,0)=1930
Q1(194,1)=0
Q1(195,0)=1940
Q1(195,1)=0
Q1(196,0)=1950
Q1(196,1)=0
Q1(197,0)=1960
Q1(197,1)=0
Q1(198,0)=1970
Q1(198,1)=0
Q1(199,0)=1980
Q1(199,1)=0
Q1(200,0)=1990
Q1(200,1)=0
Q1(201,0)=2000
Q1(201,1)=0
Q1(202,0)=2010
Q1(202,1)=0
Q1(203,0)=2020
Q1(203,1)=0
Q1(204,0)=2030
Q1(204,1)=0
Q1(205,0)=2040
Q1(205,1)=0
Q1(206,0)=2050
Q1(206,1)=0
Q1(207,0)=2060
Q1(207,1)=0
Q1(208,0)=2070
Q1(208,1)=0
Q1(209,0)=2080
Q1(209,1)=0
Q1(210,0)=2090
Q1(210,1)=0
Q1(211,0)=2100
Q1(211,1)=0
Q1(212,0)=2110
Q1(212,1)=0
Q1(213,0)=2120
Q1(213,1)=0
Q1(214,0)=2130
Q1(214,1)=0
Q1(215,0)=2140
Q1(215,1)=0
Q1(216,0)=2150
Q1(216,1)=0
Q1(217,0)=2160
Q1(217,1)=0
Q1(218,0)=2170
Q1(218,1)=0
Q1(219,0)=2180
Q1(219,1)=0
Q1(220,0)=2190
Q1(220,1)=0
Q1(221,0)=2200
Q1(221,1)=0
Q1(222,0)=2210
Q1(222,1)=0
Q1(223,0)=2220
Q1(223,1)=0
Q1(224,0)=2230
Q1(224,1)=0
Q1(225,0)=2240
Q1(225,1)=0
Q1(226,0)=2250
Q1(226,1)=0
Q1(227,0)=2260
Q1(227,1)=0
Q1(228,0)=2270
Q1(228,1)=0
Q1(229,0)=2280
Q1(229,1)=0
Q1(230,0)=2290
Q1(230,1)=0
Q1(231,0)=2300
Q1(231,1)=0
Q1(232,0)=2310
Q1(232,1)=0
Q1(233,0)=2320
Q1(233,1)=0
Q1(234,0)=2330
Q1(234,1)=0
Q1(235,0)=2340
Q1(235,1)=0
Q1(236,0)=2350
Q1(236,1)=0
Q1(237,0)=2360
Q1(237,1)=0
Q1(238,0)=2370
Q1(238,1)=0
Q1(239,0)=2380
Q1(239,1)=0
Q1(240,0)=2390
Q1(240,1)=0
Q1(241,0)=2400
Q1(241,1)=0
Q1(242,0)=2410
Q1(242,1)=0
Q1(243,0)=2420
Q1(243,1)=0
Q1(244,0)=2430
Q1(244,1)=0
Q1(245,0)=2440
Q1(245,1)=0
Q1(246,0)=2450
Q1(246,1)=0
Q1(247,0)=2460
Q1(247,1)=0
Q1(248,0)=2470
Q1(248,1)=0
Q1(249,0)=2480
Q1(249,1)=0
Q1(250,0)=2490
Q1(250,1)=0
Q1(251,0)=2500
Q1(251,1)=0
Q1(252,0)=2510
Q1(252,1)=0
Q1(253,0)=2520
Q1(253,1)=0
Q1(254,0)=2530
Q1(254,1)=0
Q1(255,0)=2540
Q1(255,1)=0
Q1(256,0)=2550
Q1(256,1)=0
Q1(257,0)=2560
Q1(257,1)=0
Q1(258,0)=2570
Q1(258,1)=0
Q1(259,0)=2580
Q1(259,1)=0
Q1(260,0)=2590
Q1(260,1)=0
Q1(261,0)=2600
Q1(261,1)=0
Q1(262,0)=2610
Q1(262,1)=0
Q1(263,0)=2620
Q1(263,1)=0
Q1(264,0)=2630
Q1(264,1)=0
Q1(265,0)=2640
Q1(265,1)=0
Q1(266,0)=2650
Q1(266,1)=0
Q1(267,0)=2660
Q1(267,1)=0
Q1(268,0)=2670
Q1(268,1)=0
Q1(269,0)=2680
Q1(269,1)=0
Q1(270,0)=2690
Q1(270,1)=0
Q1(271,0)=2700
Q1(271,1)=0
Q1(272,0)=2710
Q1(272,1)=0
Q1(273,0)=2720
Q1(273,1)=0
Q1(274,0)=2730
Q1(274,1)=0
Q1(275,0)=2740
Q1(275,1)=0
Q1(276,0)=2750
Q1(276,1)=0
Q1(277,0)=2760
Q1(277,1)=0
Q1(278,0)=2770
Q1(278,1)=0
Q1(279,0)=2780
Q1(279,1)=0
Q1(280,0)=2790
Q1(280,1)=0
Q1(281,0)=2800
Q1(281,1)=0
Q1(282,0)=2810
Q1(282,1)=0
Q1(283,0)=2820
Q1(283,1)=0
Q1(284,0)=2830
Q1(284,1)=0
Q1(285,0)=2840
Q1(285,1)=0
Q1(286,0)=2850
Q1(286,1)=0
Q1(287,0)=2860
Q1(287,1)=0
Q1(288,0)=2870
Q1(288,1)=0
Q1(289,0)=2880
Q1(289,1)=0
Q1(290,0)=2890
Q1(290,1)=0
Q1(291,0)=2900
Q1(291,1)=0
Q1(292,0)=2910
Q1(292,1)=0
Q1(293,0)=2920
Q1(293,1)=0
Q1(294,0)=2930
Q1(294,1)=0
Q1(295,0)=2940
Q1(295,1)=0
Q1(296,0)=2950
Q1(296,1)=0
Q1(297,0)=2960
Q1(297,1)=0
Q1(298,0)=2970
Q1(298,1)=0
Q1(299,0)=2980
Q1(299,1)=0
Q1(300,0)=2990
Q1(300,1)=0
Q1(301,0)=3000
Q1(301,1)=0
Q1(302,0)=3010
Q1(302,1)=0
Q1(303,0)=3020
Q1(303,1)=0
Q1(304,0)=3030
Q1(304,1)=0
Q1(305,0)=3040
Q1(305,1)=0
Q1(306,0)=3050
Q1(306,1)=0
Q1(307,0)=3060
Q1(307,1)=0
Q1(308,0)=3070
Q1(308,1)=0
Q1(309,0)=3080
Q1(309,1)=0
Q1(310,0)=3090
Q1(310,1)=0
Q1(311,0)=3100
Q1(311,1)=0
Q1(312,0)=3110
Q1(312,1)=0
Q1(313,0)=3120
Q1(313,1)=0
Q1(314,0)=3130
Q1(314,1)=0
Q1(315,0)=3140
Q1(315,1)=0
Q1(316,0)=3150
Q1(316,1)=0
Q1(317,0)=3160
Q1(317,1)=0
Q1(318,0)=3170
Q1(318,1)=0
Q1(319,0)=3180
Q1(319,1)=0
Q1(320,0)=3190
Q1(320,1)=0
Q1(321,0)=3200
Q1(321,1)=0
Q1(322,0)=3210
Q1(322,1)=0
Q1(323,0)=3220
Q1(323,1)=0
Q1(324,0)=3230
Q1(324,1)=0
Q1(325,0)=3240
Q1(325,1)=0
Q1(326,0)=3250
Q1(326,1)=0
Q1(327,0)=3260
Q1(327,1)=0
Q1(328,0)=3270
Q1(328,1)=0
Q1(329,0)=3280
Q1(329,1)=0
Q1(330,0)=3290
Q1(330,1)=0
Q1(331,0)=3300
Q1(331,1)=0
Q1(332,0)=3310
Q1(332,1)=0
Q1(333,0)=3320
Q1(333,1)=0
Q1(334,0)=3330
Q1(334,1)=0
Q1(335,0)=3340
Q1(335,1)=0
Q1(336,0)=3350
Q1(336,1)=0
Q1(337,0)=3360
Q1(337,1)=0
Q1(338,0)=3370
Q1(338,1)=0
Q1(339,0)=3380
Q1(339,1)=0
Q1(340,0)=3390
Q1(340,1)=0
Q1(341,0)=3400
Q1(341,1)=0
Q1(342,0)=3410
Q1(342,1)=0
Q1(343,0)=3420
Q1(343,1)=0
Q1(344,0)=3430
Q1(344,1)=0
Q1(345,0)=3440
Q1(345,1)=0
Q1(346,0)=3450
Q1(346,1)=0
Q1(347,0)=3460
Q1(347,1)=0
Q1(348,0)=3470
Q1(348,1)=0
Q1(349,0)=3480
Q1(349,1)=0
Q1(350,0)=3490
Q1(350,1)=0
Q1(351,0)=3500
Q1(351,1)=0
Q1(352,0)=3510
Q1(352,1)=0
Q1(353,0)=3520
Q1(353,1)=0
Q1(354,0)=3530
Q1(354,1)=0
Q1(355,0)=3540
Q1(355,1)=0
Q1(356,0)=3550
Q1(356,1)=0
Q1(357,0)=3560
Q1(357,1)=0
Q1(358,0)=3570
Q1(358,1)=0
Q1(359,0)=3580
Q1(359,1)=0
Q1(360,0)=3590
Q1(360,1)=0
Q1(361,0)=3600
Q1(361,1)=0
Q1(362,0)=3610
Q1(362,1)=0
Q1(363,0)=3620
Q1(363,1)=0
Q1(364,0)=3630
Q1(364,1)=0
Q1(365,0)=3640
Q1(365,1)=0
Q1(366,0)=3650
Q1(366,1)=0
Q1(367,0)=3660
Q1(367,1)=0
Q1(368,0)=3670
Q1(368,1)=0
Q1(369,0)=3680
Q1(369,1)=0
Q1(370,0)=3690
Q1(370,1)=0
Q1(371,0)=3700
Q1(371,1)=0
Q1(372,0)=3710
Q1(372,1)=0
Q1(373,0)=3720
Q1(373,1)=0
Q1(374,0)=3730
Q1(374,1)=0
Q1(375,0)=3740
Q1(375,1)=0
Q1(376,0)=3750
Q1(376,1)=0
Q1(377,0)=3760
Q1(377,1)=0
Q1(378,0)=3770
Q1(378,1)=0
Q1(379,0)=3780
Q1(379,1)=0
Q1(380,0)=3790
Q1(380,1)=0
Q1(381,0)=3800
Q1(381,1)=0
Q1(382,0)=3810
Q1(382,1)=0
Q1(383,0)=3820
Q1(383,1)=0
Q1(384,0)=3830
Q1(384,1)=0
Q1(385,0)=3840
Q1(385,1)=0
Q1(386,0)=3850
Q1(386,1)=0
Q1(387,0)=3860
Q1(387,1)=0
Q1(388,0)=3870
Q1(388,1)=0
Q1(389,0)=3880
Q1(389,1)=0
Q1(390,0)=3890
Q1(390,1)=0
Q1(391,0)=3900
Q1(391,1)=0
Q1(392,0)=3910
Q1(392,1)=0
Q1(393,0)=3920
Q1(393,1)=0
Q1(394,0)=3930
Q1(394,1)=0
Q1(395,0)=3940
Q1(395,1)=0
Q1(396,0)=3950
Q1(396,1)=0
Q1(397,0)=3960
Q1(397,1)=0
Q1(398,0)=3970
Q1(398,1)=0
Q1(399,0)=3980
Q1(399,1)=0
Q1(400,0)=3990
Q1(400,1)=0
Q1(401,0)=4000
Q1(401,1)=0
Q1(402,0)=4010
Q1(402,1)=0
Q1(403,0)=4020
Q1(403,1)=0
Q1(404,0)=4030
Q1(404,1)=0
Q1(405,0)=4040
Q1(405,1)=0
Q1(406,0)=4050
Q1(406,1)=0
Q1(407,0)=4060
Q1(407,1)=0
Q1(408,0)=4070
Q1(408,1)=0
Q1(409,0)=4080
Q1(409,1)=0
Q1(410,0)=4090
Q1(410,1)=0
Q1(411,0)=4100
Q1(411,1)=0
Q1(412,0)=4110
Q1(412,1)=0
Q1(413,0)=4120
Q1(413,1)=0
Q1(414,0)=4130
Q1(414,1)=0
Q1(415,0)=4140
Q1(415,1)=0
Q1(416,0)=4150
Q1(416,1)=0
Q1(417,0)=4160
Q1(417,1)=0
Q1(418,0)=4170
Q1(418,1)=0
Q1(419,0)=4180
Q1(419,1)=0
Q1(420,0)=4190
Q1(420,1)=0
Q1(421,0)=4200
Q1(421,1)=9.29336421643
Q1(422,0)=4210
Q1(422,1)=21.1444246894
Q1(423,0)=4220
Q1(423,1)=32.9928042499
Q1(424,0)=4230
Q1(424,1)=44.837000636
Q1(425,0)=4240
Q1(425,1)=56.6755121158
Q1(426,0)=4250
Q1(426,1)=68.5068376786
Q1(427,0)=4260
Q1(427,1)=80.3294772244
Q1(428,0)=4270
Q1(428,1)=92.1419317549
Q1(429,0)=4280
Q1(429,1)=103.942703563
Q1(430,0)=4290
Q1(430,1)=115.730296422
Q1(431,0)=4300
Q1(431,1)=127.503215778
Q1(432,0)=4310
Q1(432,1)=139.259968937
Q1(433,0)=4320
Q1(433,1)=150.999065252
Q1(434,0)=4330
Q1(434,1)=162.719016319
Q1(435,0)=4340
Q1(435,1)=174.41833616
Q1(436,0)=4350
Q1(436,1)=186.09554141
Q1(437,0)=4360
Q1(437,1)=197.749151511
Q1(438,0)=4370
Q1(438,1)=209.377688897
Q1(439,0)=4380
Q1(439,1)=220.979679178
Q1(440,0)=4390
Q1(440,1)=232.553651334
Q1(441,0)=4400
Q1(441,1)=244.098137893
Q1(442,0)=4410
Q1(442,1)=255.611675125
Q1(443,0)=4420
Q1(443,1)=267.092803222
Q1(444,0)=4430
Q1(444,1)=278.540066486
Q1(445,0)=4440
Q1(445,1)=289.952013513
Q1(446,0)=4450
Q1(446,1)=301.327197376
Q1(447,0)=4460
Q1(447,1)=312.66417581
Q1(448,0)=4470
Q1(448,1)=323.961511393
Q1(449,0)=4480
Q1(449,1)=335.217771731
Q1(450,0)=4490
Q1(450,1)=346.431529637
Q1(451,0)=4500
Q1(451,1)=357.601363312
Q1(452,0)=4510
Q1(452,1)=368.725856528
Q1(453,0)=4520
Q1(453,1)=379.803598805
Q1(454,0)=4530
Q1(454,1)=390.833185589
Q1(455,0)=4540
Q1(455,1)=401.813218434
Q1(456,0)=4550
Q1(456,1)=412.742305176
Q1(457,0)=4560
Q1(457,1)=423.619060111
Q1(458,0)=4570
Q1(458,1)=434.442104169
Q1(459,0)=4580
Q1(459,1)=445.21006509
Q1(460,0)=4590
Q1(460,1)=455.921577601
Q1(461,0)=4600
Q1(461,1)=466.575283581
Q1(462,0)=4610
Q1(462,1)=477.169832244
Q1(463,0)=4620
Q1(463,1)=487.7038803
Q1(464,0)=4630
Q1(464,1)=498.176092132
Q1(465,0)=4640
Q1(465,1)=508.585139962
Q1(466,0)=4650
Q1(466,1)=518.929704024
Q1(467,0)=4660
Q1(467,1)=529.208472723
Q1(468,0)=4670
Q1(468,1)=539.42014281
Q1(469,0)=4680
Q1(469,1)=549.563419542
Q1(470,0)=4690
Q1(470,1)=559.637016848
Q1(471,0)=4700
Q1(471,1)=569.63965749
Q1(472,0)=4710
Q1(472,1)=579.570073229
Q1(473,0)=4720
Q1(473,1)=589.427004984
Q1(474,0)=4730
Q1(474,1)=599.209202987
Q1(475,0)=4740
Q1(475,1)=608.915426949
Q1(476,0)=4750
Q1(476,1)=618.544446214
Q1(477,0)=4760
Q1(477,1)=628.095039913
Q1(478,0)=4770
Q1(478,1)=637.565997121
Q1(479,0)=4780
Q1(479,1)=646.956117011
Q1(480,0)=4790
Q1(480,1)=656.264209005
Q1(481,0)=4800
Q1(481,1)=665.489092924
Q1(482,0)=4810
Q1(482,1)=674.629599142
Q1(483,0)=4820
Q1(483,1)=683.684568729
Q1(484,0)=4830
Q1(484,1)=692.6528536
Q1(485,0)=4840
Q1(485,1)=701.533316663
Q1(486,0)=4850
Q1(486,1)=710.324831958
Q1(487,0)=4860
Q1(487,1)=719.026284805
Q1(488,0)=4870
Q1(488,1)=727.636571943
Q1(489,0)=4880
Q1(489,1)=736.154601668
Q1(490,0)=4890
Q1(490,1)=744.579293975
Q1(491,0)=4900
Q1(491,1)=752.909580694
Q1(492,0)=4910
Q1(492,1)=761.144405623
Q1(493,0)=4920
Q1(493,1)=769.282724664
Q1(494,0)=4930
Q1(494,1)=777.323505956
Q1(495,0)=4940
Q1(495,1)=785.265730004
Q1(496,0)=4950
Q1(496,1)=793.108389809
Q1(497,0)=4960
Q1(497,1)=800.850490996
Q1(498,0)=4970
Q1(498,1)=808.491051941
Q1(499,0)=4980
Q1(499,1)=816.029103893
Q1(500,0)=4990
Q1(500,1)=823.463691099
Q1(501,0)=5000
Q1(501,1)=830.793870922
Q1(502,0)=5010
Q1(502,1)=838.018713967
Q1(503,0)=5020
Q1(503,1)=845.137304191
Q1(504,0)=5030
Q1(504,1)=852.148739025
Q1(505,0)=5040
Q1(505,1)=859.052129486
Q1(506,0)=5050
Q1(506,1)=865.846600288
Q1(507,0)=5060
Q1(507,1)=872.531289959
Q1(508,0)=5070
Q1(508,1)=879.105350941
Q1(509,0)=5080
Q1(509,1)=885.567949708
Q1(510,0)=5090
Q1(510,1)=891.918266862
Q1(511,0)=5100
Q1(511,1)=898.155497244
Q1(512,0)=5110
Q1(512,1)=904.278850032
Q1(513,0)=5120
Q1(513,1)=910.287548843
Q1(514,0)=5130
Q1(514,1)=916.180831831
Q1(515,0)=5140
Q1(515,1)=921.957951784
Q1(516,0)=5150
Q1(516,1)=927.618176218
Q1(517,0)=5160
Q1(517,1)=933.160787469
Q1(518,0)=5170
Q1(518,1)=938.585082788
Q1(519,0)=5180
Q1(519,1)=943.890374426
Q1(520,0)=5190
Q1(520,1)=949.075989721
Q1(521,0)=5200
Q1(521,1)=954.141271187
Q1(522,0)=5210
Q1(522,1)=959.085576594
Q1(523,0)=5220
Q1(523,1)=963.908279051
Q1(524,0)=5230
Q1(524,1)=968.608767086
Q1(525,0)=5240
Q1(525,1)=973.186444721
Q1(526,0)=5250
Q1(526,1)=977.640731549
Q1(527,0)=5260
Q1(527,1)=981.971062811
Q1(528,0)=5270
Q1(528,1)=986.17688946
Q1(529,0)=5280
Q1(529,1)=990.257678238
Q1(530,0)=5290
Q1(530,1)=994.21291174
Q1(531,0)=5300
Q1(531,1)=998.042088479
Q1(532,0)=5310
Q1(532,1)=1001.74472295
Q1(533,0)=5320
Q1(533,1)=1005.3203457
Q1(534,0)=5330
Q1(534,1)=1008.76850337
Q1(535,0)=5340
Q1(535,1)=1012.08875876
Q1(536,0)=5350
Q1(536,1)=1015.28069091
Q1(537,0)=5360
Q1(537,1)=1018.3438951
Q1(538,0)=5370
Q1(538,1)=1021.27798294
Q1(539,0)=5380
Q1(539,1)=1024.08258243
Q1(540,0)=5390
Q1(540,1)=1026.75733797
Q1(541,0)=5400
Q1(541,1)=1029.30191042
Q1(542,0)=5410
Q1(542,1)=1031.71597715
Q1(543,0)=5420
Q1(543,1)=1033.99923209
Q1(544,0)=5430
Q1(544,1)=1036.15138574
Q1(545,0)=5440
Q1(545,1)=1038.17216523
Q1(546,0)=5450
Q1(546,1)=1040.06131433
Q1(547,0)=5460
Q1(547,1)=1041.81859353
Q1(548,0)=5470
Q1(548,1)=1043.44378003
Q1(549,0)=5480
Q1(549,1)=1044.93666775
Q1(550,0)=5490
Q1(550,1)=1046.29706741
Q1(551,0)=5500
Q1(551,1)=1047.52480654
Q1(552,0)=5510
Q1(552,1)=1048.61972947
Q1(553,0)=5520
Q1(553,1)=1049.58169736
Q1(554,0)=5530
Q1(554,1)=1050.41058825
Q1(555,0)=5540
Q1(555,1)=1051.10629705
Q1(556,0)=5550
Q1(556,1)=1051.66873555
Q1(557,0)=5560
Q1(557,1)=1052.09783243
Q1(558,0)=5570
Q1(558,1)=1052.39353329
Q1(559,0)=5580
Q1(559,1)=1052.55580063
Q1(560,0)=5590
Q1(560,1)=1052.58461389
Q1(561,0)=5600
Q1(561,1)=1052.47996941
Q1(562,0)=5610
Q1(562,1)=1052.24188046
Q1(563,0)=5620
Q1(563,1)=1051.87037722
Q1(564,0)=5630
Q1(564,1)=1051.36550679
Q1(565,0)=5640
Q1(565,1)=1050.7273332
Q1(566,0)=5650
Q1(566,1)=1049.95593736
Q1(567,0)=5660
Q1(567,1)=1049.05141706
Q1(568,0)=5670
Q1(568,1)=1048.013887
Q1(569,0)=5680
Q1(569,1)=1046.84347873
Q1(570,0)=5690
Q1(570,1)=1045.54034063
Q1(571,0)=5700
Q1(571,1)=1044.10463795
Q1(572,0)=5710
Q1(572,1)=1042.5365527
Q1(573,0)=5720
Q1(573,1)=1040.83628371
Q1(574,0)=5730
Q1(574,1)=1039.00404656
Q1(575,0)=5740
Q1(575,1)=1037.04007355
Q1(576,0)=5750
Q1(576,1)=1034.9446137
Q1(577,0)=5760
Q1(577,1)=1032.7179327
Q1(578,0)=5770
Q1(578,1)=1030.36031287
Q1(579,0)=5780
Q1(579,1)=1027.87205312
Q1(580,0)=5790
Q1(580,1)=1025.25346895
Q1(581,0)=5800
Q1(581,1)=1022.50489237
Q1(582,0)=5810
Q1(582,1)=1019.62667188
Q1(583,0)=5820
Q1(583,1)=1016.6191724
Q1(584,0)=5830
Q1(584,1)=1013.48277525
Q1(585,0)=5840
Q1(585,1)=1010.21787811
Q1(586,0)=5850
Q1(586,1)=1006.82489492
Q1(587,0)=5860
Q1(587,1)=1003.30425589
Q1(588,0)=5870
Q1(588,1)=999.656407409
Q1(589,0)=5880
Q1(589,1)=995.881811977
Q1(590,0)=5890
Q1(590,1)=991.980948182
Q1(591,0)=5900
Q1(591,1)=987.954310617
Q1(592,0)=5910
Q1(592,1)=983.80240982
Q1(593,0)=5920
Q1(593,1)=979.525772214
Q1(594,0)=5930
Q1(594,1)=975.124940034
Q1(595,0)=5940
Q1(595,1)=970.600471266
Q1(596,0)=5950
Q1(596,1)=965.952939569
Q1(597,0)=5960
Q1(597,1)=961.182934206
Q1(598,0)=5970
Q1(598,1)=956.291059968
Q1(599,0)=5980
Q1(599,1)=951.277937098
Q1(600,0)=5990
Q1(600,1)=946.144201213
Q1(601,0)=6000
Q1(601,1)=940.890503222
Q1(602,0)=6010
Q1(602,1)=935.517509244
Q1(603,0)=6020
Q1(603,1)=930.025900523
Q1(604,0)=6030
Q1(604,1)=924.416373344
Q1(605,0)=6040
Q1(605,1)=918.689638941
Q1(606,0)=6050
Q1(606,1)=912.84642341
Q1(607,0)=6060
Q1(607,1)=906.887467615
Q1(608,0)=6070
Q1(608,1)=900.813527095
Q1(609,0)=6080
Q1(609,1)=894.625371968
Q1(610,0)=6090
Q1(610,1)=888.323786833
Q1(611,0)=6100
Q1(611,1)=881.909570672
Q1(612,0)=6110
Q1(612,1)=875.383536747
Q1(613,0)=6120
Q1(613,1)=868.746512496
Q1(614,0)=6130
Q1(614,1)=861.999339432
Q1(615,0)=6140
Q1(615,1)=855.142873031
Q1(616,0)=6150
Q1(616,1)=848.177982629
Q1(617,0)=6160
Q1(617,1)=841.105551308
Q1(618,0)=6170
Q1(618,1)=833.926475784
Q1(619,0)=6180
Q1(619,1)=826.641666297
Q1(620,0)=6190
Q1(620,1)=819.252046491
Q1(621,0)=6200
Q1(621,1)=811.7585533
Q1(622,0)=6210
Q1(622,1)=804.162136828
Q1(623,0)=6220
Q1(623,1)=796.463760228
Q1(624,0)=6230
Q1(624,1)=788.664399582
Q1(625,0)=6240
Q1(625,1)=780.765043773
Q1(626,0)=6250
Q1(626,1)=772.766694367
Q1(627,0)=6260
Q1(627,1)=764.670365476
Q1(628,0)=6270
Q1(628,1)=756.47708364
Q1(629,0)=6280
Q1(629,1)=748.187887688
Q1(630,0)=6290
Q1(630,1)=739.803828612
Q1(631,0)=6300
Q1(631,1)=731.325969431
Q1(632,0)=6310
Q1(632,1)=722.755385057
Q1(633,0)=6320
Q1(633,1)=714.093162159
Q1(634,0)=6330
Q1(634,1)=705.340399025
Q1(635,0)=6340
Q1(635,1)=696.498205421
Q1(636,0)=6350
Q1(636,1)=687.567702454
Q1(637,0)=6360
Q1(637,1)=678.550022427
Q1(638,0)=6370
Q1(638,1)=669.446308697
Q1(639,0)=6380
Q1(639,1)=660.257715528
Q1(640,0)=6390
Q1(640,1)=650.985407946
Q1(641,0)=6400
Q1(641,1)=641.630561591
Q1(642,0)=6410
Q1(642,1)=632.19436257
Q1(643,0)=6420
Q1(643,1)=622.678007304
Q1(644,0)=6430
Q1(644,1)=613.082702375
Q1(645,0)=6440
Q1(645,1)=603.409664377
Q1(646,0)=6450
Q1(646,1)=593.66011976
Q1(647,0)=6460
Q1(647,1)=583.835304673
Q1(648,0)=6470
Q1(648,1)=573.936464811
Q1(649,0)=6480
Q1(649,1)=563.96485525
Q1(650,0)=6490
Q1(650,1)=553.921740298
Q1(651,0)=6500
Q1(651,1)=543.808393326
Q1(652,0)=6510
Q1(652,1)=533.62609661
Q1(653,0)=6520
Q1(653,1)=523.376141169
Q1(654,0)=6530
Q1(654,1)=513.0598266
Q1(655,0)=6540
Q1(655,1)=502.678460913
Q1(656,0)=6550
Q1(656,1)=492.233360368
Q1(657,0)=6560
Q1(657,1)=481.725849304
Q1(658,0)=6570
Q1(658,1)=471.157259974
Q1(659,0)=6580
Q1(659,1)=460.528932374
Q1(660,0)=6590
Q1(660,1)=449.842214076
Q1(661,0)=6600
Q1(661,1)=439.098460054
Q1(662,0)=6610
Q1(662,1)=428.299032514
Q1(663,0)=6620
Q1(663,1)=417.445300721
Q1(664,0)=6630
Q1(664,1)=406.538640825
Q1(665,0)=6640
Q1(665,1)=395.580435688
Q1(666,0)=6650
Q1(666,1)=384.572074705
Q1(667,0)=6660
Q1(667,1)=373.514953633
Q1(668,0)=6670
Q1(668,1)=362.410474409
Q1(669,0)=6680
Q1(669,1)=351.260044975
Q1(670,0)=6690
Q1(670,1)=340.065079102
Q1(671,0)=6700
Q1(671,1)=328.826996204
Q1(672,0)=6710
Q1(672,1)=317.547221163
Q1(673,0)=6720
Q1(673,1)=306.227184147
Q1(674,0)=6730
Q1(674,1)=294.868320431
Q1(675,0)=6740
Q1(675,1)=283.47207021
Q1(676,0)=6750
Q1(676,1)=272.03987842
Q1(677,0)=6760
Q1(677,1)=260.573194556
Q1(678,0)=6770
Q1(678,1)=249.073472483
Q1(679,0)=6780
Q1(679,1)=237.542170257
Q1(680,0)=6790
Q1(680,1)=225.980749939
Q1(681,0)=6800
Q1(681,1)=214.390677405
Q1(682,0)=6810
Q1(682,1)=202.773422169
Q1(683,0)=6820
Q1(683,1)=191.130457186
Q1(684,0)=6830
Q1(684,1)=179.463258676
Q1(685,0)=6840
Q1(685,1)=167.773305927
Q1(686,0)=6850
Q1(686,1)=156.062081115
Q1(687,0)=6860
Q1(687,1)=144.331069112
Q1(688,0)=6870
Q1(688,1)=132.5817573
Q1(689,0)=6880
Q1(689,1)=120.815635378
Q1(690,0)=6890
Q1(690,1)=109.034195181
Q1(691,0)=6900
Q1(691,1)=97.2389304821
Q1(692,0)=6910
Q1(692,1)=85.4313368098
Q1(693,0)=6920
Q1(693,1)=73.6129112547
Q1(694,0)=6930
Q1(694,1)=61.785152281
Q1(695,0)=6940
Q1(695,1)=49.9495595363
Q1(696,0)=6950
Q1(696,1)=38.1076336614
Q1(697,0)=6960
Q1(697,1)=26.2608761003
Q1(698,0)=6970
Q1(698,1)=14.4107889092
Q1(699,0)=6980
Q1(699,1)=2.55887456691
Q1(700,0)=6990
Q1(700,1)=0
Q1(701,0)=7000
Q1(701,1)=0
Q1(702,0)=7010
Q1(702,1)=0
Q1(703,0)=7020
Q1(703,1)=0
Q1(704,0)=7030
Q1(704,1)=0
Q1(705,0)=7040
Q1(705,1)=0
Q1(706,0)=7050
Q1(706,1)=0
Q1(707,0)=7060
Q1(707,1)=0
Q1(708,0)=7070
Q1(708,1)=0
Q1(709,0)=7080
Q1(709,1)=0
Q1(710,0)=7090
Q1(710,1)=0
Q1(711,0)=7100
Q1(711,1)=0
Q1(712,0)=7110
Q1(712,1)=0
Q1(713,0)=7120
Q1(713,1)=0
Q1(714,0)=7130
Q1(714,1)=0
Q1(715,0)=7140
Q1(715,1)=0
Q1(716,0)=7150
Q1(716,1)=0
Q1(717,0)=7160
Q1(717,1)=0
Q1(718,0)=7170
Q1(718,1)=0
Q1(719,0)=7180
Q1(719,1)=0
Q1(720,0)=7190
Q1(720,1)=0
Q1(721,0)=7200
Q1(721,1)=0
Q1(722,0)=7210
Q1(722,1)=0
Q1(723,0)=7220
Q1(723,1)=0
Q1(724,0)=7230
Q1(724,1)=0
Q1(725,0)=7240
Q1(725,1)=0
Q1(726,0)=7250
Q1(726,1)=0
Q1(727,0)=7260
Q1(727,1)=0
Q1(728,0)=7270
Q1(728,1)=0
Q1(729,0)=7280
Q1(729,1)=0
Q1(730,0)=7290
Q1(730,1)=0
Q1(731,0)=7300
Q1(731,1)=0
Q1(732,0)=7310
Q1(732,1)=0
Q1(733,0)=7320
Q1(733,1)=0
Q1(734,0)=7330
Q1(734,1)=0
Q1(735,0)=7340
Q1(735,1)=0
Q1(736,0)=7350
Q1(736,1)=0
Q1(737,0)=7360
Q1(737,1)=0
Q1(738,0)=7370
Q1(738,1)=0
Q1(739,0)=7380
Q1(739,1)=0
Q1(740,0)=7390
Q1(740,1)=0
Q1(741,0)=7400
Q1(741,1)=0
Q1(742,0)=7410
Q1(742,1)=0
Q1(743,0)=7420
Q1(743,1)=0
Q1(744,0)=7430
Q1(744,1)=0
Q1(745,0)=7440
Q1(745,1)=0
Q1(746,0)=7450
Q1(746,1)=0
Q1(747,0)=7460
Q1(747,1)=0
Q1(748,0)=7470
Q1(748,1)=0
Q1(749,0)=7480
Q1(749,1)=0
Q1(750,0)=7490
Q1(750,1)=0
Q1(751,0)=7500
Q1(751,1)=0
Q1(752,0)=7510
Q1(752,1)=0
Q1(753,0)=7520
Q1(753,1)=0
Q1(754,0)=7530
Q1(754,1)=0
Q1(755,0)=7540
Q1(755,1)=0
Q1(756,0)=7550
Q1(756,1)=0
Q1(757,0)=7560
Q1(757,1)=0
Q1(758,0)=7570
Q1(758,1)=0
Q1(759,0)=7580
Q1(759,1)=0
Q1(760,0)=7590
Q1(760,1)=0
Q1(761,0)=7600
Q1(761,1)=0
Q1(762,0)=7610
Q1(762,1)=0
Q1(763,0)=7620
Q1(763,1)=0
Q1(764,0)=7630
Q1(764,1)=0
Q1(765,0)=7640
Q1(765,1)=0
Q1(766,0)=7650
Q1(766,1)=0
Q1(767,0)=7660
Q1(767,1)=0
Q1(768,0)=7670
Q1(768,1)=0
Q1(769,0)=7680
Q1(769,1)=0
Q1(770,0)=7690
Q1(770,1)=0
Q1(771,0)=7700
Q1(771,1)=0
Q1(772,0)=7710
Q1(772,1)=0
Q1(773,0)=7720
Q1(773,1)=0
Q1(774,0)=7730
Q1(774,1)=0
Q1(775,0)=7740
Q1(775,1)=0
Q1(776,0)=7750
Q1(776,1)=0
Q1(777,0)=7760
Q1(777,1)=0
Q1(778,0)=7770
Q1(778,1)=0
Q1(779,0)=7780
Q1(779,1)=0
Q1(780,0)=7790
Q1(780,1)=0
Q1(781,0)=7800
Q1(781,1)=0
Q1(782,0)=7810
Q1(782,1)=0
Q1(783,0)=7820
Q1(783,1)=0
Q1(784,0)=7830
Q1(784,1)=0
Q1(785,0)=7840
Q1(785,1)=0
Q1(786,0)=7850
Q1(786,1)=0
Q1(787,0)=7860
Q1(787,1)=0
Q1(788,0)=7870
Q1(788,1)=0
Q1(789,0)=7880
Q1(789,1)=0
Q1(790,0)=7890
Q1(790,1)=0
Q1(791,0)=7900
Q1(791,1)=0
Q1(792,0)=7910
Q1(792,1)=0
Q1(793,0)=7920
Q1(793,1)=0
Q1(794,0)=7930
Q1(794,1)=0
Q1(795,0)=7940
Q1(795,1)=0
Q1(796,0)=7950
Q1(796,1)=0
Q1(797,0)=7960
Q1(797,1)=0
Q1(798,0)=7970
Q1(798,1)=0
Q1(799,0)=7980
Q1(799,1)=0
Q1(800,0)=7990
Q1(800,1)=0
Q1(801,0)=8000
Q1(801,1)=0
Q1(802,0)=8010
Q1(802,1)=0
Q1(803,0)=8020
Q1(803,1)=0
Q1(804,0)=8030
Q1(804,1)=0
Q1(805,0)=8040
Q1(805,1)=0
Q1(806,0)=8050
Q1(806,1)=0
Q1(807,0)=8060
Q1(807,1)=0
Q1(808,0)=8070
Q1(808,1)=0
Q1(809,0)=8080
Q1(809,1)=0
Q1(810,0)=8090
Q1(810,1)=0
Q1(811,0)=8100
Q1(811,1)=0
Q1(812,0)=8110
Q1(812,1)=0
Q1(813,0)=8120
Q1(813,1)=0
Q1(814,0)=8130
Q1(814,1)=0
Q1(815,0)=8140
Q1(815,1)=0
Q1(816,0)=8150
Q1(816,1)=0
Q1(817,0)=8160
Q1(817,1)=0
Q1(818,0)=8170
Q1(818,1)=0
Q1(819,0)=8180
Q1(819,1)=0
Q1(820,0)=8190
Q1(820,1)=0
Q1(821,0)=8200
Q1(821,1)=0
Q1(822,0)=8210
Q1(822,1)=0
Q1(823,0)=8220
Q1(823,1)=0
Q1(824,0)=8230
Q1(824,1)=0
Q1(825,0)=8240
Q1(825,1)=0
Q1(826,0)=8250
Q1(826,1)=0
Q1(827,0)=8260
Q1(827,1)=0
Q1(828,0)=8270
Q1(828,1)=0
Q1(829,0)=8280
Q1(829,1)=0
Q1(830,0)=8290
Q1(830,1)=0
Q1(831,0)=8300
Q1(831,1)=0
Q1(832,0)=8310
Q1(832,1)=0
Q1(833,0)=8320
Q1(833,1)=0
Q1(834,0)=8330
Q1(834,1)=0
Q1(835,0)=8340
Q1(835,1)=0
Q1(836,0)=8350
Q1(836,1)=0
Q1(837,0)=8360
Q1(837,1)=0
Q1(838,0)=8370
Q1(838,1)=0
Q1(839,0)=8380
Q1(839,1)=0
Q1(840,0)=8390
Q1(840,1)=0
Q1(841,0)=8400
Q1(841,1)=0
Q1(842,0)=8410
Q1(842,1)=0
Q1(843,0)=8420
Q1(843,1)=0
Q1(844,0)=8430
Q1(844,1)=0
Q1(845,0)=8440
Q1(845,1)=0
Q1(846,0)=8450
Q1(846,1)=0
Q1(847,0)=8460
Q1(847,1)=0
Q1(848,0)=8470
Q1(848,1)=0
Q1(849,0)=8480
Q1(849,1)=0
Q1(850,0)=8490
Q1(850,1)=0
Q1(851,0)=8500
Q1(851,1)=0
Q1(852,0)=8510
Q1(852,1)=0
Q1(853,0)=8520
Q1(853,1)=0
Q1(854,0)=8530
Q1(854,1)=0
Q1(855,0)=8540
Q1(855,1)=0
Q1(856,0)=8550
Q1(856,1)=0
Q1(857,0)=8560
Q1(857,1)=0
Q1(858,0)=8570
Q1(858,1)=0
Q1(859,0)=8580
Q1(859,1)=0
Q1(860,0)=8590
Q1(860,1)=0
Q1(861,0)=8600
Q1(861,1)=0
Q1(862,0)=8610
Q1(862,1)=0
Q1(863,0)=8620
Q1(863,1)=0
Q1(864,0)=8630
Q1(864,1)=0
Q1(865,0)=8640
Q1(865,1)=0
Q1(866,0)=8650
Q1(866,1)=0
Q1(867,0)=8660
Q1(867,1)=0
Q1(868,0)=8670
Q1(868,1)=0
Q1(869,0)=8680
Q1(869,1)=0
Q1(870,0)=8690
Q1(870,1)=0
Q1(871,0)=8700
Q1(871,1)=0
Q1(872,0)=8710
Q1(872,1)=0
Q1(873,0)=8720
Q1(873,1)=0
Q1(874,0)=8730
Q1(874,1)=0
Q1(875,0)=8740
Q1(875,1)=0
Q1(876,0)=8750
Q1(876,1)=0
Q1(877,0)=8760
Q1(877,1)=0
Q1(878,0)=8770
Q1(878,1)=0
Q1(879,0)=8780
Q1(879,1)=0
Q1(880,0)=8790
Q1(880,1)=0
Q1(881,0)=8800
Q1(881,1)=0
Q1(882,0)=8810
Q1(882,1)=0
Q1(883,0)=8820
Q1(883,1)=0
Q1(884,0)=8830
Q1(884,1)=0
Q1(885,0)=8840
Q1(885,1)=0
Q1(886,0)=8850
Q1(886,1)=0
Q1(887,0)=8860
Q1(887,1)=0
Q1(888,0)=8870
Q1(888,1)=0
Q1(889,0)=8880
Q1(889,1)=0
Q1(890,0)=8890
Q1(890,1)=0
Q1(891,0)=8900
Q1(891,1)=0
Q1(892,0)=8910
Q1(892,1)=0
Q1(893,0)=8920
Q1(893,1)=0
Q1(894,0)=8930
Q1(894,1)=0
Q1(895,0)=8940
Q1(895,1)=0
Q1(896,0)=8950
Q1(896,1)=0
Q1(897,0)=8960
Q1(897,1)=0
Q1(898,0)=8970
Q1(898,1)=0
Q1(899,0)=8980
Q1(899,1)=0
Q1(900,0)=8990
Q1(900,1)=0
Q1(901,0)=9000
Q1(901,1)=0
Q1(902,0)=9010
Q1(902,1)=0
Q1(903,0)=9020
Q1(903,1)=0
Q1(904,0)=9030
Q1(904,1)=0
Q1(905,0)=9040
Q1(905,1)=0
Q1(906,0)=9050
Q1(906,1)=0
Q1(907,0)=9060
Q1(907,1)=0
Q1(908,0)=9070
Q1(908,1)=0
Q1(909,0)=9080
Q1(909,1)=0
Q1(910,0)=9090
Q1(910,1)=0
Q1(911,0)=9100
Q1(911,1)=0
Q1(912,0)=9110
Q1(912,1)=0
Q1(913,0)=9120
Q1(913,1)=0
Q1(914,0)=9130
Q1(914,1)=0
Q1(915,0)=9140
Q1(915,1)=0
Q1(916,0)=9150
Q1(916,1)=0
Q1(917,0)=9160
Q1(917,1)=0
Q1(918,0)=9170
Q1(918,1)=0
Q1(919,0)=9180
Q1(919,1)=0
Q1(920,0)=9190
Q1(920,1)=0
Q1(921,0)=9200
Q1(921,1)=0
Q1(922,0)=9210
Q1(922,1)=0
Q1(923,0)=9220
Q1(923,1)=0
Q1(924,0)=9230
Q1(924,1)=0
Q1(925,0)=9240
Q1(925,1)=0
Q1(926,0)=9250
Q1(926,1)=0
Q1(927,0)=9260
Q1(927,1)=0
Q1(928,0)=9270
Q1(928,1)=0
Q1(929,0)=9280
Q1(929,1)=0
Q1(930,0)=9290
Q1(930,1)=0
Q1(931,0)=9300
Q1(931,1)=0
Q1(932,0)=9310
Q1(932,1)=0
Q1(933,0)=9320
Q1(933,1)=0
Q1(934,0)=9330
Q1(934,1)=0
Q1(935,0)=9340
Q1(935,1)=0
Q1(936,0)=9350
Q1(936,1)=0
Q1(937,0)=9360
Q1(937,1)=0
Q1(938,0)=9370
Q1(938,1)=0
Q1(939,0)=9380
Q1(939,1)=0
Q1(940,0)=9390
Q1(940,1)=0
Q1(941,0)=9400
Q1(941,1)=0
Q1(942,0)=9410
Q1(942,1)=0
Q1(943,0)=9420
Q1(943,1)=0
Q1(944,0)=9430
Q1(944,1)=0
Q1(945,0)=9440
Q1(945,1)=0
Q1(946,0)=9450
Q1(946,1)=0
Q1(947,0)=9460
Q1(947,1)=0
Q1(948,0)=9470
Q1(948,1)=0
Q1(949,0)=9480
Q1(949,1)=0
Q1(950,0)=9490
Q1(950,1)=0
Q1(951,0)=9500
Q1(951,1)=0
Q1(952,0)=9510
Q1(952,1)=0
Q1(953,0)=9520
Q1(953,1)=0
Q1(954,0)=9530
Q1(954,1)=0
Q1(955,0)=9540
Q1(955,1)=0
Q1(956,0)=9550
Q1(956,1)=0
Q1(957,0)=9560
Q1(957,1)=0
Q1(958,0)=9570
Q1(958,1)=0
Q1(959,0)=9580
Q1(959,1)=0
Q1(960,0)=9590
Q1(960,1)=0
Q1(961,0)=9600
Q1(961,1)=0
Q1(962,0)=9610
Q1(962,1)=0
Q1(963,0)=9620
Q1(963,1)=0
Q1(964,0)=9630
Q1(964,1)=0
Q1(965,0)=9640
Q1(965,1)=0
Q1(966,0)=9650
Q1(966,1)=0
Q1(967,0)=9660
Q1(967,1)=0
Q1(968,0)=9670
Q1(968,1)=0
Q1(969,0)=9680
Q1(969,1)=0
Q1(970,0)=9690
Q1(970,1)=0
Q1(971,0)=9700
Q1(971,1)=0
Q1(972,0)=9710
Q1(972,1)=0
Q1(973,0)=9720
Q1(973,1)=0
Q1(974,0)=9730
Q1(974,1)=0
Q1(975,0)=9740
Q1(975,1)=0
Q1(976,0)=9750
Q1(976,1)=0
Q1(977,0)=9760
Q1(977,1)=0
Q1(978,0)=9770
Q1(978,1)=0
Q1(979,0)=9780
Q1(979,1)=9.29336421643
Q1(980,0)=9790
Q1(980,1)=21.1444246894
Q1(981,0)=9800
Q1(981,1)=32.9928042499
Q1(982,0)=9810
Q1(982,1)=44.837000636
Q1(983,0)=9820
Q1(983,1)=56.6755121158
Q1(984,0)=9830
Q1(984,1)=68.5068376786
Q1(985,0)=9840
Q1(985,1)=80.3294772244
Q1(986,0)=9850
Q1(986,1)=92.1419317549
Q1(987,0)=9860
Q1(987,1)=103.942703563
Q1(988,0)=9870
Q1(988,1)=115.730296422
Q1(989,0)=9880
Q1(989,1)=127.503215778
Q1(990,0)=9890
Q1(990,1)=139.259968937
Q1(991,0)=9900
Q1(991,1)=150.999065252
Q1(992,0)=9910
Q1(992,1)=162.719016319
Q1(993,0)=9920
Q1(993,1)=174.41833616
Q1(994,0)=9930
Q1(994,1)=186.09554141
Q1(995,0)=9940
Q1(995,1)=197.749151511
Q1(996,0)=9950
Q1(996,1)=209.377688897
Q1(997,0)=9960
Q1(997,1)=220.979679178
Q1(998,0)=9970
Q1(998,1)=232.553651334
Q1(999,0)=9980
Q1(999,1)=244.098137893
Q1(1000,0)=9990
Q1(1000,1)=255.611675125
Q1(1001,0)=10000
Q1(1001,1)=267.092803222
Q1(1002,0)=10010
Q1(1002,1)=278.540066486
Q1(1003,0)=10020
Q1(1003,1)=289.952013513
Q1(1004,0)=10030
Q1(1004,1)=301.327197376
Q1(1005,0)=10040
Q1(1005,1)=312.66417581
Q1(1006,0)=10050
Q1(1006,1)=323.961511393
Q1(1007,0)=10060
Q1(1007,1)=335.217771731
Q1(1008,0)=10070
Q1(1008,1)=346.431529637
Q1(1009,0)=10080
Q1(1009,1)=357.601363312
Q1(1010,0)=10090
Q1(1010,1)=368.725856528
Q1(1011,0)=10100
Q1(1011,1)=379.803598805
Q1(1012,0)=10110
Q1(1012,1)=390.833185589
Q1(1013,0)=10120
Q1(1013,1)=401.813218434
Q1(1014,0)=10130
Q1(1014,1)=412.742305176
Q1(1015,0)=10140
Q1(1015,1)=423.619060111
Q1(1016,0)=10150
Q1(1016,1)=434.442104169
Q1(1017,0)=10160
Q1(1017,1)=445.21006509
Q1(1018,0)=10170
Q1(1018,1)=455.921577601
Q1(1019,0)=10180
Q1(1019,1)=466.575283581
Q1(1020,0)=10190
Q1(1020,1)=477.169832244
Q1(1021,0)=10200
Q1(1021,1)=487.7038803
Q1(1022,0)=10210
Q1(1022,1)=498.176092132
Q1(1023,0)=10220
Q1(1023,1)=508.585139962
Q1(1024,0)=10230
Q1(1024,1)=518.929704024
Q1(1025,0)=10240
Q1(1025,1)=529.208472723
Q1(1026,0)=10250
Q1(1026,1)=539.42014281
Q1(1027,0)=10260
Q1(1027,1)=549.563419542
Q1(1028,0)=10270
Q1(1028,1)=559.637016848
Q1(1029,0)=10280
Q1(1029,1)=569.63965749
Q1(1030,0)=10290
Q1(1030,1)=579.570073229
Q1(1031,0)=10300
Q1(1031,1)=589.427004984
Q1(1032,0)=10310
Q1(1032,1)=599.209202987
Q1(1033,0)=10320
Q1(1033,1)=608.915426949
Q1(1034,0)=10330
Q1(1034,1)=618.544446214
Q1(1035,0)=10340
Q1(1035,1)=628.095039913
Q1(1036,0)=10350
Q1(1036,1)=637.565997121
Q1(1037,0)=10360
Q1(1037,1)=646.956117011
Q1(1038,0)=10370
Q1(1038,1)=656.264209005
Q1(1039,0)=10380
Q1(1039,1)=665.489092924
Q1(1040,0)=10390
Q1(1040,1)=674.629599142
Q1(1041,0)=10400
Q1(1041,1)=683.684568729
Q1(1042,0)=10410
Q1(1042,1)=692.6528536
Q1(1043,0)=10420
Q1(1043,1)=701.533316663
Q1(1044,0)=10430
Q1(1044,1)=710.324831958
Q1(1045,0)=10440
Q1(1045,1)=719.026284805
Q1(1046,0)=10450
Q1(1046,1)=727.636571943
Q1(1047,0)=10460
Q1(1047,1)=736.154601668
Q1(1048,0)=10470
Q1(1048,1)=744.579293975
Q1(1049,0)=10480
Q1(1049,1)=752.909580694
Q1(1050,0)=10490
Q1(1050,1)=761.144405623
Q1(1051,0)=10500
Q1(1051,1)=769.282724664
Q1(1052,0)=10510
Q1(1052,1)=777.323505956
Q1(1053,0)=10520
Q1(1053,1)=785.265730004
Q1(1054,0)=10530
Q1(1054,1)=793.108389809
Q1(1055,0)=10540
Q1(1055,1)=800.850490996
Q1(1056,0)=10550
Q1(1056,1)=808.491051941
Q1(1057,0)=10560
Q1(1057,1)=816.029103893
Q1(1058,0)=10570
Q1(1058,1)=823.463691099
Q1(1059,0)=10580
Q1(1059,1)=830.793870922
Q1(1060,0)=10590
Q1(1060,1)=838.018713967
Q1(1061,0)=10600
Q1(1061,1)=845.137304191
Q1(1062,0)=10610
Q1(1062,1)=852.148739025
Q1(1063,0)=10620
Q1(1063,1)=859.052129486
Q1(1064,0)=10630
Q1(1064,1)=865.846600288
Q1(1065,0)=10640
Q1(1065,1)=872.531289959
Q1(1066,0)=10650
Q1(1066,1)=879.105350941
Q1(1067,0)=10660
Q1(1067,1)=885.567949708
Q1(1068,0)=10670
Q1(1068,1)=891.918266862
Q1(1069,0)=10680
Q1(1069,1)=898.155497244
Q1(1070,0)=10690
Q1(1070,1)=904.278850032
Q1(1071,0)=10700
Q1(1071,1)=910.287548843
Q1(1072,0)=10710
Q1(1072,1)=916.180831831
Q1(1073,0)=10720
Q1(1073,1)=921.957951784
Q1(1074,0)=10730
Q1(1074,1)=927.618176218
Q1(1075,0)=10740
Q1(1075,1)=933.160787469
Q1(1076,0)=10750
Q1(1076,1)=938.585082788
Q1(1077,0)=10760
Q1(1077,1)=943.890374426
Q1(1078,0)=10770
Q1(1078,1)=949.075989721
Q1(1079,0)=10780
Q1(1079,1)=954.141271187
Q1(1080,0)=10790
Q1(1080,1)=959.085576594
Q1(1081,0)=10800
Q1(1081,1)=963.908279051
Q1(1082,0)=10810
Q1(1082,1)=968.608767086
Q1(1083,0)=10820
Q1(1083,1)=973.186444721
Q1(1084,0)=10830
Q1(1084,1)=977.640731549
Q1(1085,0)=10840
Q1(1085,1)=981.971062811
Q1(1086,0)=10850
Q1(1086,1)=986.17688946
Q1(1087,0)=10860
Q1(1087,1)=990.257678238
Q1(1088,0)=10870
Q1(1088,1)=994.21291174
Q1(1089,0)=10880
Q1(1089,1)=998.042088479
Q1(1090,0)=10890
Q1(1090,1)=1001.74472295
Q1(1091,0)=10900
Q1(1091,1)=1005.3203457
Q1(1092,0)=10910
Q1(1092,1)=1008.76850337
Q1(1093,0)=10920
Q1(1093,1)=1012.08875876
Q1(1094,0)=10930
Q1(1094,1)=1015.28069091
Q1(1095,0)=10940
Q1(1095,1)=1018.3438951
Q1(1096,0)=10950
Q1(1096,1)=1021.27798294
Q1(1097,0)=10960
Q1(1097,1)=1024.08258243
Q1(1098,0)=10970
Q1(1098,1)=1026.75733797
Q1(1099,0)=10980
Q1(1099,1)=1029.30191042
Q1(1100,0)=10990
Q1(1100,1)=1031.71597715
Q1(1101,0)=11000
Q1(1101,1)=1033.99923209
Q1(1102,0)=11010
Q1(1102,1)=1036.15138574
Q1(1103,0)=11020
Q1(1103,1)=1038.17216523
Q1(1104,0)=11030
Q1(1104,1)=1040.06131433
Q1(1105,0)=11040
Q1(1105,1)=1041.81859353
Q1(1106,0)=11050
Q1(1106,1)=1043.44378003
Q1(1107,0)=11060
Q1(1107,1)=1044.93666775
Q1(1108,0)=11070
Q1(1108,1)=1046.29706741
Q1(1109,0)=11080
Q1(1109,1)=1047.52480654
Q1(1110,0)=11090
Q1(1110,1)=1048.61972947
Q1(1111,0)=11100
Q1(1111,1)=1049.58169736
Q1(1112,0)=11110
Q1(1112,1)=1050.41058825
Q1(1113,0)=11120
Q1(1113,1)=1051.10629705
Q1(1114,0)=11130
Q1(1114,1)=1051.66873555
Q1(1115,0)=11140
Q1(1115,1)=1052.09783243
Q1(1116,0)=11150
Q1(1116,1)=1052.39353329
Q1(1117,0)=11160
Q1(1117,1)=1052.55580063
*DIM,Q2,TABLE,1117,1,1,TIME
Q2(1,0)=0
Q2(1,1)=426.718566445
Q2(2,0)=10
Q2(2,1)=426.726149699
Q2(3,0)=20
Q2(3,1)=426.698608709
Q2(4,0)=30
Q2(4,1)=426.635946968
Q2(5,0)=40
Q2(5,1)=426.53817242
Q2(6,0)=50
Q2(6,1)=426.405297463
Q2(7,0)=60
Q2(7,1)=426.237338944
Q2(8,0)=70
Q2(8,1)=426.034318157
Q2(9,0)=80
Q2(9,1)=425.796260845
Q2(10,0)=90
Q2(10,1)=425.523197191
Q2(11,0)=100
Q2(11,1)=425.215161817
Q2(12,0)=110
Q2(12,1)=424.872193778
Q2(13,0)=120
Q2(13,1)=424.494336559
Q2(14,0)=130
Q2(14,1)=424.081638071
Q2(15,0)=140
Q2(15,1)=423.634150637
Q2(16,0)=150
Q2(16,1)=423.151930997
Q2(17,0)=160
Q2(17,1)=422.63504029
Q2(18,0)=170
Q2(18,1)=422.083544054
Q2(19,0)=180
Q2(19,1)=421.497512213
Q2(20,0)=190
Q2(20,1)=420.87701907
Q2(21,0)=200
Q2(21,1)=420.222143298
Q2(22,0)=210
Q2(22,1)=419.532967929
Q2(23,0)=220
Q2(23,1)=418.809580343
Q2(24,0)=230
Q2(24,1)=418.052072261
Q2(25,0)=240
Q2(25,1)=417.260539725
Q2(26,0)=250
Q2(26,1)=416.435083096
Q2(27,0)=260
Q2(27,1)=415.575807033
Q2(28,0)=270
Q2(28,1)=414.682820485
Q2(29,0)=280
Q2(29,1)=413.756236672
Q2(30,0)=290
Q2(30,1)=412.796173079
Q2(31,0)=300
Q2(31,1)=411.802751431
Q2(32,0)=310
Q2(32,1)=410.776097685
Q2(33,0)=320
Q2(33,1)=409.716342011
Q2(34,0)=330
Q2(34,1)=408.623618775
Q2(35,0)=340
Q2(35,1)=407.498066526
Q2(36,0)=350
Q2(36,1)=406.339827972
Q2(37,0)=360
Q2(37,1)=405.149049966
Q2(38,0)=370
Q2(38,1)=403.925883489
Q2(39,0)=380
Q2(39,1)=402.670483625
Q2(40,0)=390
Q2(40,1)=401.383009549
Q2(41,0)=400
Q2(41,1)=400.063624498
Q2(42,0)=410
Q2(42,1)=398.71249576
Q2(43,0)=420
Q2(43,1)=397.329794644
Q2(44,0)=430
Q2(44,1)=395.915696463
Q2(45,0)=440
Q2(45,1)=394.470380512
Q2(46,0)=450
Q2(46,1)=392.994030044
Q2(47,0)=460
Q2(47,1)=391.486832244
Q2(48,0)=470
Q2(48,1)=389.948978212
Q2(49,0)=480
Q2(49,1)=388.380662934
Q2(50,0)=490
Q2(50,1)=386.782085255
Q2(51,0)=500
Q2(51,1)=385.153447862
Q2(52,0)=510
Q2(52,1)=383.49495725
Q2(53,0)=520
Q2(53,1)=381.806823699
Q2(54,0)=530
Q2(54,1)=380.089261249
Q2(55,0)=540
Q2(55,1)=378.34248767
Q2(56,0)=550
Q2(56,1)=376.566724438
Q2(57,0)=560
Q2(57,1)=374.762196701
Q2(58,0)=570
Q2(58,1)=372.929133257
Q2(59,0)=580
Q2(59,1)=371.067766521
Q2(60,0)=590
Q2(60,1)=369.178332496
Q2(61,0)=600
Q2(61,1)=367.261070745
Q2(62,0)=610
Q2(62,1)=365.316224359
Q2(63,0)=620
Q2(63,1)=363.344039925
Q2(64,0)=630
Q2(64,1)=361.344767497
Q2(65,0)=640
Q2(65,1)=359.318660566
Q2(66,0)=650
Q2(66,1)=357.26597602
Q2(67,0)=660
Q2(67,1)=355.186974123
Q2(68,0)=670
Q2(68,1)=353.08191847
Q2(69,0)=680
Q2(69,1)=350.951075964
Q2(70,0)=690
Q2(70,1)=348.794716775
Q2(71,0)=700
Q2(71,1)=346.613114308
Q2(72,0)=710
Q2(72,1)=344.406545171
Q2(73,0)=720
Q2(73,1)=342.175289136
Q2(74,0)=730
Q2(74,1)=339.919629103
Q2(75,0)=740
Q2(75,1)=337.639851071
Q2(76,0)=750
Q2(76,1)=335.336244092
Q2(77,0)=760
Q2(77,1)=333.009100243
Q2(78,0)=770
Q2(78,1)=330.658714583
Q2(79,0)=780
Q2(79,1)=328.285385119
Q2(80,0)=790
Q2(80,1)=325.889412766
Q2(81,0)=800
Q2(81,1)=323.471101311
Q2(82,0)=810
Q2(82,1)=321.030757373
Q2(83,0)=820
Q2(83,1)=318.568690365
Q2(84,0)=830
Q2(84,1)=316.085212453
Q2(85,0)=840
Q2(85,1)=313.580638518
Q2(86,0)=850
Q2(86,1)=311.055286117
Q2(87,0)=860
Q2(87,1)=308.509475441
Q2(88,0)=870
Q2(88,1)=305.943529273
Q2(89,0)=880
Q2(89,1)=303.357772953
Q2(90,0)=890
Q2(90,1)=300.752534328
Q2(91,0)=900
Q2(91,1)=298.128143719
Q2(92,0)=910
Q2(92,1)=295.484933874
Q2(93,0)=920
Q2(93,1)=292.823239926
Q2(94,0)=930
Q2(94,1)=290.143399353
Q2(95,0)=940
Q2(95,1)=287.445751934
Q2(96,0)=950
Q2(96,1)=284.730639703
Q2(97,0)=960
Q2(97,1)=281.998406913
Q2(98,0)=970
Q2(98,1)=279.249399983
Q2(99,0)=980
Q2(99,1)=276.483967463
Q2(100,0)=990
Q2(100,1)=273.702459982
Q2(101,0)=1000
Q2(101,1)=270.90523021
Q2(102,0)=1010
Q2(102,1)=268.092632808
Q2(103,0)=1020
Q2(103,1)=265.265024388
Q2(104,0)=1030
Q2(104,1)=262.422763462
Q2(105,0)=1040
Q2(105,1)=259.566210404
Q2(106,0)=1050
Q2(106,1)=256.695727396
Q2(107,0)=1060
Q2(107,1)=253.811678389
Q2(108,0)=1070
Q2(108,1)=250.914429052
Q2(109,0)=1080
Q2(109,1)=248.00434673
Q2(110,0)=1090
Q2(110,1)=245.081800394
Q2(111,0)=1100
Q2(111,1)=242.147160593
Q2(112,0)=1110
Q2(112,1)=239.200799414
Q2(113,0)=1120
Q2(113,1)=236.243090426
Q2(114,0)=1130
Q2(114,1)=233.274408639
Q2(115,0)=1140
Q2(115,1)=230.295130454
Q2(116,0)=1150
Q2(116,1)=227.305633615
Q2(117,0)=1160
Q2(117,1)=224.306297161
Q2(118,0)=1170
Q2(118,1)=221.297501381
Q2(119,0)=1180
Q2(119,1)=218.27962776
Q2(120,0)=1190
Q2(120,1)=215.253058937
Q2(121,0)=1200
Q2(121,1)=212.218178651
Q2(122,0)=1210
Q2(122,1)=209.175371698
Q2(123,0)=1220
Q2(123,1)=206.125023875
Q2(124,0)=1230
Q2(124,1)=203.067521938
Q2(125,0)=1240
Q2(125,1)=200.00325355
Q2(126,0)=1250
Q2(126,1)=196.93260723
Q2(127,0)=1260
Q2(127,1)=193.855972307
Q2(128,0)=1270
Q2(128,1)=190.773738869
Q2(129,0)=1280
Q2(129,1)=187.686297715
Q2(130,0)=1290
Q2(130,1)=184.594040302
Q2(131,0)=1300
Q2(131,1)=181.497358699
Q2(132,0)=1310
Q2(132,1)=178.396645537
Q2(133,0)=1320
Q2(133,1)=175.292293956
Q2(134,0)=1330
Q2(134,1)=172.184697559
Q2(135,0)=1340
Q2(135,1)=169.074250358
Q2(136,0)=1350
Q2(136,1)=165.961346731
Q2(137,0)=1360
Q2(137,1)=162.846381362
Q2(138,0)=1370
Q2(138,1)=159.729749201
Q2(139,0)=1380
Q2(139,1)=156.611845406
Q2(140,0)=1390
Q2(140,1)=153.493065298
Q2(141,0)=1400
Q2(141,1)=150.37380431
Q2(142,0)=1410
Q2(142,1)=158.993707904
Q2(143,0)=1420
Q2(143,1)=170.844768376
Q2(144,0)=1430
Q2(144,1)=182.693147937
Q2(145,0)=1440
Q2(145,1)=194.537344323
Q2(146,0)=1450
Q2(146,1)=206.375855803
Q2(147,0)=1460
Q2(147,1)=218.207181366
Q2(148,0)=1470
Q2(148,1)=230.029820912
Q2(149,0)=1480
Q2(149,1)=241.842275442
Q2(150,0)=1490
Q2(150,1)=253.64304725
Q2(151,0)=1500
Q2(151,1)=265.430640109
Q2(152,0)=1510
Q2(152,1)=277.203559465
Q2(153,0)=1520
Q2(153,1)=288.960312624
Q2(154,0)=1530
Q2(154,1)=300.699408939
Q2(155,0)=1540
Q2(155,1)=312.419360007
Q2(156,0)=1550
Q2(156,1)=324.118679847
Q2(157,0)=1560
Q2(157,1)=335.795885097
Q2(158,0)=1570
Q2(158,1)=347.449495198
Q2(159,0)=1580
Q2(159,1)=359.078032584
Q2(160,0)=1590
Q2(160,1)=370.680022866
Q2(161,0)=1600
Q2(161,1)=382.253995021
Q2(162,0)=1610
Q2(162,1)=393.79848158
Q2(163,0)=1620
Q2(163,1)=405.312018812
Q2(164,0)=1630
Q2(164,1)=416.793146909
Q2(165,0)=1640
Q2(165,1)=428.240410173
Q2(166,0)=1650
Q2(166,1)=439.6523572
Q2(167,0)=1660
Q2(167,1)=451.027541063
Q2(168,0)=1670
Q2(168,1)=462.364519497
Q2(169,0)=1680
Q2(169,1)=473.66185508
Q2(170,0)=1690
Q2(170,1)=484.918115418
Q2(171,0)=1700
Q2(171,1)=496.131873324
Q2(172,0)=1710
Q2(172,1)=507.301707
Q2(173,0)=1720
Q2(173,1)=518.426200215
Q2(174,0)=1730
Q2(174,1)=149.700343687
Q2(175,0)=1740
Q2(175,1)=149.700343687
Q2(176,0)=1750
Q2(176,1)=149.700343687
Q2(177,0)=1760
Q2(177,1)=149.700343687
Q2(178,0)=1770
Q2(178,1)=149.700343687
Q2(179,0)=1780
Q2(179,1)=149.700343687
Q2(180,0)=1790
Q2(180,1)=149.700343687
Q2(181,0)=1800
Q2(181,1)=149.700343687
Q2(182,0)=1810
Q2(182,1)=149.700343687
Q2(183,0)=1820
Q2(183,1)=149.700343687
Q2(184,0)=1830
Q2(184,1)=149.700343687
Q2(185,0)=1840
Q2(185,1)=149.700343687
Q2(186,0)=1850
Q2(186,1)=149.700343687
Q2(187,0)=1860
Q2(187,1)=149.700343687
Q2(188,0)=1870
Q2(188,1)=149.700343687
Q2(189,0)=1880
Q2(189,1)=149.700343687
Q2(190,0)=1890
Q2(190,1)=149.700343687
Q2(191,0)=1900
Q2(191,1)=149.700343687
Q2(192,0)=1910
Q2(192,1)=149.700343687
Q2(193,0)=1920
Q2(193,1)=149.700343687
Q2(194,0)=1930
Q2(194,1)=149.700343687
Q2(195,0)=1940
Q2(195,1)=149.700343687
Q2(196,0)=1950
Q2(196,1)=149.700343687
Q2(197,0)=1960
Q2(197,1)=149.700343687
Q2(198,0)=1970
Q2(198,1)=149.700343687
Q2(199,0)=1980
Q2(199,1)=149.700343687
Q2(200,0)=1990
Q2(200,1)=149.700343687
Q2(201,0)=2000
Q2(201,1)=149.700343687
Q2(202,0)=2010
Q2(202,1)=149.700343687
Q2(203,0)=2020
Q2(203,1)=149.700343687
Q2(204,0)=2030
Q2(204,1)=149.700343687
Q2(205,0)=2040
Q2(205,1)=149.700343687
Q2(206,0)=2050
Q2(206,1)=149.700343687
Q2(207,0)=2060
Q2(207,1)=149.700343687
Q2(208,0)=2070
Q2(208,1)=149.700343687
Q2(209,0)=2080
Q2(209,1)=149.700343687
Q2(210,0)=2090
Q2(210,1)=149.700343687
Q2(211,0)=2100
Q2(211,1)=149.700343687
Q2(212,0)=2110
Q2(212,1)=149.700343687
Q2(213,0)=2120
Q2(213,1)=149.700343687
Q2(214,0)=2130
Q2(214,1)=149.700343687
Q2(215,0)=2140
Q2(215,1)=149.700343687
Q2(216,0)=2150
Q2(216,1)=149.700343687
Q2(217,0)=2160
Q2(217,1)=149.700343687
Q2(218,0)=2170
Q2(218,1)=149.700343687
Q2(219,0)=2180
Q2(219,1)=149.700343687
Q2(220,0)=2190
Q2(220,1)=149.700343687
Q2(221,0)=2200
Q2(221,1)=149.700343687
Q2(222,0)=2210
Q2(222,1)=149.700343687
Q2(223,0)=2220
Q2(223,1)=149.700343687
Q2(224,0)=2230
Q2(224,1)=149.700343687
Q2(225,0)=2240
Q2(225,1)=149.700343687
Q2(226,0)=2250
Q2(226,1)=149.700343687
Q2(227,0)=2260
Q2(227,1)=149.700343687
Q2(228,0)=2270
Q2(228,1)=149.700343687
Q2(229,0)=2280
Q2(229,1)=149.700343687
Q2(230,0)=2290
Q2(230,1)=149.700343687
Q2(231,0)=2300
Q2(231,1)=149.700343687
Q2(232,0)=2310
Q2(232,1)=149.700343687
Q2(233,0)=2320
Q2(233,1)=149.700343687
Q2(234,0)=2330
Q2(234,1)=149.700343687
Q2(235,0)=2340
Q2(235,1)=149.700343687
Q2(236,0)=2350
Q2(236,1)=149.700343687
Q2(237,0)=2360
Q2(237,1)=149.700343687
Q2(238,0)=2370
Q2(238,1)=149.700343687
Q2(239,0)=2380
Q2(239,1)=149.700343687
Q2(240,0)=2390
Q2(240,1)=149.700343687
Q2(241,0)=2400
Q2(241,1)=149.700343687
Q2(242,0)=2410
Q2(242,1)=149.700343687
Q2(243,0)=2420
Q2(243,1)=149.700343687
Q2(244,0)=2430
Q2(244,1)=149.700343687
Q2(245,0)=2440
Q2(245,1)=149.700343687
Q2(246,0)=2450
Q2(246,1)=149.700343687
Q2(247,0)=2460
Q2(247,1)=149.700343687
Q2(248,0)=2470
Q2(248,1)=149.700343687
Q2(249,0)=2480
Q2(249,1)=149.700343687
Q2(250,0)=2490
Q2(250,1)=149.700343687
Q2(251,0)=2500
Q2(251,1)=149.700343687
Q2(252,0)=2510
Q2(252,1)=149.700343687
Q2(253,0)=2520
Q2(253,1)=149.700343687
Q2(254,0)=2530
Q2(254,1)=149.700343687
Q2(255,0)=2540
Q2(255,1)=149.700343687
Q2(256,0)=2550
Q2(256,1)=149.700343687
Q2(257,0)=2560
Q2(257,1)=149.700343687
Q2(258,0)=2570
Q2(258,1)=149.700343687
Q2(259,0)=2580
Q2(259,1)=149.700343687
Q2(260,0)=2590
Q2(260,1)=149.700343687
Q2(261,0)=2600
Q2(261,1)=149.700343687
Q2(262,0)=2610
Q2(262,1)=149.700343687
Q2(263,0)=2620
Q2(263,1)=149.700343687
Q2(264,0)=2630
Q2(264,1)=149.700343687
Q2(265,0)=2640
Q2(265,1)=149.700343687
Q2(266,0)=2650
Q2(266,1)=149.700343687
Q2(267,0)=2660
Q2(267,1)=149.700343687
Q2(268,0)=2670
Q2(268,1)=149.700343687
Q2(269,0)=2680
Q2(269,1)=149.700343687
Q2(270,0)=2690
Q2(270,1)=149.700343687
Q2(271,0)=2700
Q2(271,1)=149.700343687
Q2(272,0)=2710
Q2(272,1)=149.700343687
Q2(273,0)=2720
Q2(273,1)=149.700343687
Q2(274,0)=2730
Q2(274,1)=149.700343687
Q2(275,0)=2740
Q2(275,1)=149.700343687
Q2(276,0)=2750
Q2(276,1)=149.700343687
Q2(277,0)=2760
Q2(277,1)=149.700343687
Q2(278,0)=2770
Q2(278,1)=149.700343687
Q2(279,0)=2780
Q2(279,1)=149.700343687
Q2(280,0)=2790
Q2(280,1)=149.700343687
Q2(281,0)=2800
Q2(281,1)=149.700343687
Q2(282,0)=2810
Q2(282,1)=149.700343687
Q2(283,0)=2820
Q2(283,1)=149.700343687
Q2(284,0)=2830
Q2(284,1)=149.700343687
Q2(285,0)=2840
Q2(285,1)=149.700343687
Q2(286,0)=2850
Q2(286,1)=149.700343687
Q2(287,0)=2860
Q2(287,1)=149.700343687
Q2(288,0)=2870
Q2(288,1)=149.700343687
Q2(289,0)=2880
Q2(289,1)=149.700343687
Q2(290,0)=2890
Q2(290,1)=149.700343687
Q2(291,0)=2900
Q2(291,1)=149.700343687
Q2(292,0)=2910
Q2(292,1)=149.700343687
Q2(293,0)=2920
Q2(293,1)=149.700343687
Q2(294,0)=2930
Q2(294,1)=149.700343687
Q2(295,0)=2940
Q2(295,1)=149.700343687
Q2(296,0)=2950
Q2(296,1)=149.700343687
Q2(297,0)=2960
Q2(297,1)=149.700343687
Q2(298,0)=2970
Q2(298,1)=149.700343687
Q2(299,0)=2980
Q2(299,1)=149.700343687
Q2(300,0)=2990
Q2(300,1)=149.700343687
Q2(301,0)=3000
Q2(301,1)=149.700343687
Q2(302,0)=3010
Q2(302,1)=149.700343687
Q2(303,0)=3020
Q2(303,1)=149.700343687
Q2(304,0)=3030
Q2(304,1)=149.700343687
Q2(305,0)=3040
Q2(305,1)=149.700343687
Q2(306,0)=3050
Q2(306,1)=149.700343687
Q2(307,0)=3060
Q2(307,1)=149.700343687
Q2(308,0)=3070
Q2(308,1)=149.700343687
Q2(309,0)=3080
Q2(309,1)=149.700343687
Q2(310,0)=3090
Q2(310,1)=149.700343687
Q2(311,0)=3100
Q2(311,1)=149.700343687
Q2(312,0)=3110
Q2(312,1)=149.700343687
Q2(313,0)=3120
Q2(313,1)=149.700343687
Q2(314,0)=3130
Q2(314,1)=149.700343687
Q2(315,0)=3140
Q2(315,1)=149.700343687
Q2(316,0)=3150
Q2(316,1)=149.700343687
Q2(317,0)=3160
Q2(317,1)=149.700343687
Q2(318,0)=3170
Q2(318,1)=149.700343687
Q2(319,0)=3180
Q2(319,1)=149.700343687
Q2(320,0)=3190
Q2(320,1)=149.700343687
Q2(321,0)=3200
Q2(321,1)=149.700343687
Q2(322,0)=3210
Q2(322,1)=149.700343687
Q2(323,0)=3220
Q2(323,1)=149.700343687
Q2(324,0)=3230
Q2(324,1)=149.700343687
Q2(325,0)=3240
Q2(325,1)=149.700343687
Q2(326,0)=3250
Q2(326,1)=149.700343687
Q2(327,0)=3260
Q2(327,1)=149.700343687
Q2(328,0)=3270
Q2(328,1)=149.700343687
Q2(329,0)=3280
Q2(329,1)=149.700343687
Q2(330,0)=3290
Q2(330,1)=149.700343687
Q2(331,0)=3300
Q2(331,1)=149.700343687
Q2(332,0)=3310
Q2(332,1)=149.700343687
Q2(333,0)=3320
Q2(333,1)=149.700343687
Q2(334,0)=3330
Q2(334,1)=149.700343687
Q2(335,0)=3340
Q2(335,1)=149.700343687
Q2(336,0)=3350
Q2(336,1)=149.700343687
Q2(337,0)=3360
Q2(337,1)=149.700343687
Q2(338,0)=3370
Q2(338,1)=149.700343687
Q2(339,0)=3380
Q2(339,1)=149.700343687
Q2(340,0)=3390
Q2(340,1)=149.700343687
Q2(341,0)=3400
Q2(341,1)=149.700343687
Q2(342,0)=3410
Q2(342,1)=149.700343687
Q2(343,0)=3420
Q2(343,1)=149.700343687
Q2(344,0)=3430
Q2(344,1)=149.700343687
Q2(345,0)=3440
Q2(345,1)=149.700343687
Q2(346,0)=3450
Q2(346,1)=149.700343687
Q2(347,0)=3460
Q2(347,1)=149.700343687
Q2(348,0)=3470
Q2(348,1)=149.700343687
Q2(349,0)=3480
Q2(349,1)=149.700343687
Q2(350,0)=3490
Q2(350,1)=149.700343687
Q2(351,0)=3500
Q2(351,1)=149.700343687
Q2(352,0)=3510
Q2(352,1)=149.700343687
Q2(353,0)=3520
Q2(353,1)=149.700343687
Q2(354,0)=3530
Q2(354,1)=149.700343687
Q2(355,0)=3540
Q2(355,1)=149.700343687
Q2(356,0)=3550
Q2(356,1)=149.700343687
Q2(357,0)=3560
Q2(357,1)=149.700343687
Q2(358,0)=3570
Q2(358,1)=149.700343687
Q2(359,0)=3580
Q2(359,1)=149.700343687
Q2(360,0)=3590
Q2(360,1)=149.700343687
Q2(361,0)=3600
Q2(361,1)=149.700343687
Q2(362,0)=3610
Q2(362,1)=149.700343687
Q2(363,0)=3620
Q2(363,1)=149.700343687
Q2(364,0)=3630
Q2(364,1)=149.700343687
Q2(365,0)=3640
Q2(365,1)=149.700343687
Q2(366,0)=3650
Q2(366,1)=149.700343687
Q2(367,0)=3660
Q2(367,1)=149.700343687
Q2(368,0)=3670
Q2(368,1)=149.700343687
Q2(369,0)=3680
Q2(369,1)=149.700343687
Q2(370,0)=3690
Q2(370,1)=149.700343687
Q2(371,0)=3700
Q2(371,1)=149.700343687
Q2(372,0)=3710
Q2(372,1)=149.700343687
Q2(373,0)=3720
Q2(373,1)=149.700343687
Q2(374,0)=3730
Q2(374,1)=149.700343687
Q2(375,0)=3740
Q2(375,1)=149.700343687
Q2(376,0)=3750
Q2(376,1)=149.700343687
Q2(377,0)=3760
Q2(377,1)=149.700343687
Q2(378,0)=3770
Q2(378,1)=149.700343687
Q2(379,0)=3780
Q2(379,1)=149.700343687
Q2(380,0)=3790
Q2(380,1)=149.700343687
Q2(381,0)=3800
Q2(381,1)=149.700343687
Q2(382,0)=3810
Q2(382,1)=149.700343687
Q2(383,0)=3820
Q2(383,1)=149.700343687
Q2(384,0)=3830
Q2(384,1)=149.700343687
Q2(385,0)=3840
Q2(385,1)=149.700343687
Q2(386,0)=3850
Q2(386,1)=149.700343687
Q2(387,0)=3860
Q2(387,1)=149.700343687
Q2(388,0)=3870
Q2(388,1)=149.700343687
Q2(389,0)=3880
Q2(389,1)=512.110818096
Q2(390,0)=3890
Q2(390,1)=500.960388663
Q2(391,0)=3900
Q2(391,1)=489.765422789
Q2(392,0)=3910
Q2(392,1)=478.527339891
Q2(393,0)=3920
Q2(393,1)=467.24756485
Q2(394,0)=3930
Q2(394,1)=455.927527834
Q2(395,0)=3940
Q2(395,1)=444.568664118
Q2(396,0)=3950
Q2(396,1)=433.172413897
Q2(397,0)=3960
Q2(397,1)=421.740222107
Q2(398,0)=3970
Q2(398,1)=410.273538243
Q2(399,0)=3980
Q2(399,1)=398.77381617
Q2(400,0)=3990
Q2(400,1)=387.242513944
Q2(401,0)=4000
Q2(401,1)=375.681093626
Q2(402,0)=4010
Q2(402,1)=364.091021092
Q2(403,0)=4020
Q2(403,1)=352.473765856
Q2(404,0)=4030
Q2(404,1)=340.830800873
Q2(405,0)=4040
Q2(405,1)=329.163602363
Q2(406,0)=4050
Q2(406,1)=317.473649614
Q2(407,0)=4060
Q2(407,1)=305.762424802
Q2(408,0)=4070
Q2(408,1)=294.031412799
Q2(409,0)=4080
Q2(409,1)=282.282100987
Q2(410,0)=4090
Q2(410,1)=270.515979065
Q2(411,0)=4100
Q2(411,1)=258.734538868
Q2(412,0)=4110
Q2(412,1)=246.939274169
Q2(413,0)=4120
Q2(413,1)=235.131680497
Q2(414,0)=4130
Q2(414,1)=223.313254942
Q2(415,0)=4140
Q2(415,1)=211.485495968
Q2(416,0)=4150
Q2(416,1)=199.649903223
Q2(417,0)=4160
Q2(417,1)=187.807977349
Q2(418,0)=4170
Q2(418,1)=175.961219787
Q2(419,0)=4180
Q2(419,1)=164.111132596
Q2(420,0)=4190
Q2(420,1)=152.259218254
Q2(421,0)=4200
Q2(421,1)=152.146229442
Q2(422,0)=4210
Q2(422,1)=155.265265704
Q2(423,0)=4220
Q2(423,1)=158.383596386
Q2(424,0)=4230
Q2(424,1)=161.500826115
Q2(425,0)=4240
Q2(425,1)=164.616559655
Q2(426,0)=4250
Q2(426,1)=167.73040196
Q2(427,0)=4260
Q2(427,1)=170.841958224
Q2(428,0)=4270
Q2(428,1)=173.950833933
Q2(429,0)=4280
Q2(429,1)=177.056634909
Q2(430,0)=4290
Q2(430,1)=180.158967367
Q2(431,0)=4300
Q2(431,1)=183.257437961
Q2(432,0)=4310
Q2(432,1)=186.351653834
Q2(433,0)=4320
Q2(433,1)=189.441222669
Q2(434,0)=4330
Q2(434,1)=192.525752737
Q2(435,0)=4340
Q2(435,1)=195.604852949
Q2(436,0)=4350
Q2(436,1)=198.678132906
Q2(437,0)=4360
Q2(437,1)=201.745202944
Q2(438,0)=4370
Q2(438,1)=204.805674187
Q2(439,0)=4380
Q2(439,1)=207.859158597
Q2(440,0)=4390
Q2(440,1)=210.905269022
Q2(441,0)=4400
Q2(441,1)=213.943619243
Q2(442,0)=4410
Q2(442,1)=216.973824026
Q2(443,0)=4420
Q2(443,1)=219.99549917
Q2(444,0)=4430
Q2(444,1)=223.008261555
Q2(445,0)=4440
Q2(445,1)=226.011729193
Q2(446,0)=4450
Q2(446,1)=229.00552127
Q2(447,0)=4460
Q2(447,1)=231.989258204
Q2(448,0)=4470
Q2(448,1)=234.962561685
Q2(449,0)=4480
Q2(449,1)=237.925054725
Q2(450,0)=4490
Q2(450,1)=240.876361709
Q2(451,0)=4500
Q2(451,1)=243.816108439
Q2(452,0)=4510
Q2(452,1)=246.743922183
Q2(453,0)=4520
Q2(453,1)=249.659431723
Q2(454,0)=4530
Q2(454,1)=252.562267398
Q2(455,0)=4540
Q2(455,1)=255.452061158
Q2(456,0)=4550
Q2(456,1)=258.328446604
Q2(457,0)=4560
Q2(457,1)=261.191059037
Q2(458,0)=4570
Q2(458,1)=264.039535505
Q2(459,0)=4580
Q2(459,1)=266.873514849
Q2(460,0)=4590
Q2(460,1)=269.692637747
Q2(461,0)=4600
Q2(461,1)=272.49654676
Q2(462,0)=4610
Q2(462,1)=275.28488638
Q2(463,0)=4620
Q2(463,1)=278.057303072
Q2(464,0)=4630
Q2(464,1)=280.81344532
Q2(465,0)=4640
Q2(465,1)=283.55296367
Q2(466,0)=4650
Q2(466,1)=286.275510779
Q2(467,0)=4660
Q2(467,1)=288.980741452
Q2(468,0)=4670
Q2(468,1)=291.668312693
Q2(469,0)=4680
Q2(469,1)=294.337883742
Q2(470,0)=4690
Q2(470,1)=296.989116124
Q2(471,0)=4700
Q2(471,1)=299.621673687
Q2(472,0)=4710
Q2(472,1)=302.235222648
Q2(473,0)=4720
Q2(473,1)=304.829431634
Q2(474,0)=4730
Q2(474,1)=307.403971724
Q2(475,0)=4740
Q2(475,1)=309.958516491
Q2(476,0)=4750
Q2(476,1)=312.492742042
Q2(477,0)=4760
Q2(477,1)=315.006327061
Q2(478,0)=4770
Q2(478,1)=317.498952851
Q2(479,0)=4780
Q2(479,1)=319.970303369
Q2(480,0)=4790
Q2(480,1)=322.420065272
Q2(481,0)=4800
Q2(481,1)=324.847927954
Q2(482,0)=4810
Q2(482,1)=327.253583583
Q2(483,0)=4820
Q2(483,1)=329.636727147
Q2(484,0)=4830
Q2(484,1)=331.997056486
Q2(485,0)=4840
Q2(485,1)=334.33427233
Q2(486,0)=4850
Q2(486,1)=336.648078345
Q2(487,0)=4860
Q2(487,1)=338.938181161
Q2(488,0)=4870
Q2(488,1)=341.204290415
Q2(489,0)=4880
Q2(489,1)=343.446118786
Q2(490,0)=4890
Q2(490,1)=345.663382032
Q2(491,0)=4900
Q2(491,1)=347.855799023
Q2(492,0)=4910
Q2(492,1)=350.023091783
Q2(493,0)=4920
Q2(493,1)=352.16498552
Q2(494,0)=4930
Q2(494,1)=354.281208662
Q2(495,0)=4940
Q2(495,1)=356.371492891
Q2(496,0)=4950
Q2(496,1)=358.43557318
Q2(497,0)=4960
Q2(497,1)=360.473187822
Q2(498,0)=4970
Q2(498,1)=362.484078468
Q2(499,0)=4980
Q2(499,1)=364.467990156
Q2(500,0)=4990
Q2(500,1)=366.424671344
Q2(501,0)=5000
Q2(501,1)=368.353873944
Q2(502,0)=5010
Q2(502,1)=370.255353351
Q2(503,0)=5020
Q2(503,1)=372.128868476
Q2(504,0)=5030
Q2(504,1)=373.974181775
Q2(505,0)=5040
Q2(505,1)=375.79105928
Q2(506,0)=5050
Q2(506,1)=377.579270627
Q2(507,0)=5060
Q2(507,1)=379.338589089
Q2(508,0)=5070
Q2(508,1)=381.0687916
Q2(509,0)=5080
Q2(509,1)=382.769658788
Q2(510,0)=5090
Q2(510,1)=384.440974999
Q2(511,0)=5100
Q2(511,1)=386.082528325
Q2(512,0)=5110
Q2(512,1)=387.694110633
Q2(513,0)=5120
Q2(513,1)=389.27551759
Q2(514,0)=5130
Q2(514,1)=390.826548688
Q2(515,0)=5140
Q2(515,1)=392.347007272
Q2(516,0)=5150
Q2(516,1)=393.836700561
Q2(517,0)=5160
Q2(517,1)=395.295439678
Q2(518,0)=5170
Q2(518,1)=396.723039666
Q2(519,0)=5180
Q2(519,1)=398.119319521
Q2(520,0)=5190
Q2(520,1)=399.484102207
Q2(521,0)=5200
Q2(521,1)=400.817214683
Q2(522,0)=5210
Q2(522,1)=402.118487923
Q2(523,0)=5220
Q2(523,1)=403.387756937
Q2(524,0)=5230
Q2(524,1)=404.624860795
Q2(525,0)=5240
Q2(525,1)=405.829642643
Q2(526,0)=5250
Q2(526,1)=407.001949727
Q2(527,0)=5260
Q2(527,1)=408.141633408
Q2(528,0)=5270
Q2(528,1)=409.248549187
Q2(529,0)=5280
Q2(529,1)=410.322556716
Q2(530,0)=5290
Q2(530,1)=411.363519822
Q2(531,0)=5300
Q2(531,1)=412.37130652
Q2(532,0)=5310
Q2(532,1)=413.345789033
Q2(533,0)=5320
Q2(533,1)=414.286843805
Q2(534,0)=5330
Q2(534,1)=415.194351519
Q2(535,0)=5340
Q2(535,1)=416.068197113
Q2(536,0)=5350
Q2(536,1)=416.908269791
Q2(537,0)=5360
Q2(537,1)=417.71446304
Q2(538,0)=5370
Q2(538,1)=418.486674641
Q2(539,0)=5380
Q2(539,1)=419.224806687
Q2(540,0)=5390
Q2(540,1)=419.928765588
Q2(541,0)=5400
Q2(541,1)=420.59846209
Q2(542,0)=5410
Q2(542,1)=421.23381128
Q2(543,0)=5420
Q2(543,1)=421.834732604
Q2(544,0)=5430
Q2(544,1)=422.40114987
Q2(545,0)=5440
Q2(545,1)=422.932991262
Q2(546,0)=5450
Q2(546,1)=423.430189347
Q2(547,0)=5460
Q2(547,1)=423.892681085
Q2(548,0)=5470
Q2(548,1)=424.320407836
Q2(549,0)=5480
Q2(549,1)=424.713315369
Q2(550,0)=5490
Q2(550,1)=425.071353868
Q2(551,0)=5500
Q2(551,1)=425.394477935
Q2(552,0)=5510
Q2(552,1)=425.682646603
Q2(553,0)=5520
Q2(553,1)=425.935823333
Q2(554,0)=5530
Q2(554,1)=426.153976026
Q2(555,0)=5540
Q2(555,1)=426.337077022
Q2(556,0)=5550
Q2(556,1)=426.485103105
Q2(557,0)=5560
Q2(557,1)=426.598035507
Q2(558,0)=5570
Q2(558,1)=426.67585991
Q2(559,0)=5580
Q2(559,1)=426.718566445
Q2(560,0)=5590
Q2(560,1)=426.726149699
Q2(561,0)=5600
Q2(561,1)=426.698608709
Q2(562,0)=5610
Q2(562,1)=426.635946968
Q2(563,0)=5620
Q2(563,1)=426.53817242
Q2(564,0)=5630
Q2(564,1)=426.405297463
Q2(565,0)=5640
Q2(565,1)=426.237338944
Q2(566,0)=5650
Q2(566,1)=426.034318157
Q2(567,0)=5660
Q2(567,1)=425.796260845
Q2(568,0)=5670
Q2(568,1)=425.523197191
Q2(569,0)=5680
Q2(569,1)=425.215161817
Q2(570,0)=5690
Q2(570,1)=424.872193778
Q2(571,0)=5700
Q2(571,1)=424.494336559
Q2(572,0)=5710
Q2(572,1)=424.081638071
Q2(573,0)=5720
Q2(573,1)=423.634150637
Q2(574,0)=5730
Q2(574,1)=423.151930997
Q2(575,0)=5740
Q2(575,1)=422.63504029
Q2(576,0)=5750
Q2(576,1)=422.083544054
Q2(577,0)=5760
Q2(577,1)=421.497512213
Q2(578,0)=5770
Q2(578,1)=420.87701907
Q2(579,0)=5780
Q2(579,1)=420.222143298
Q2(580,0)=5790
Q2(580,1)=419.532967929
Q2(581,0)=5800
Q2(581,1)=418.809580343
Q2(582,0)=5810
Q2(582,1)=418.052072261
Q2(583,0)=5820
Q2(583,1)=417.260539725
Q2(584,0)=5830
Q2(584,1)=416.435083096
Q2(585,0)=5840
Q2(585,1)=415.575807033
Q2(586,0)=5850
Q2(586,1)=414.682820485
Q2(587,0)=5860
Q2(587,1)=413.756236672
Q2(588,0)=5870
Q2(588,1)=412.796173079
Q2(589,0)=5880
Q2(589,1)=411.802751431
Q2(590,0)=5890
Q2(590,1)=410.776097685
Q2(591,0)=5900
Q2(591,1)=409.716342011
Q2(592,0)=5910
Q2(592,1)=408.623618775
Q2(593,0)=5920
Q2(593,1)=407.498066526
Q2(594,0)=5930
Q2(594,1)=406.339827972
Q2(595,0)=5940
Q2(595,1)=405.149049966
Q2(596,0)=5950
Q2(596,1)=403.925883489
Q2(597,0)=5960
Q2(597,1)=402.670483625
Q2(598,0)=5970
Q2(598,1)=401.383009549
Q2(599,0)=5980
Q2(599,1)=400.063624498
Q2(600,0)=5990
Q2(600,1)=398.71249576
Q2(601,0)=6000
Q2(601,1)=397.329794644
Q2(602,0)=6010
Q2(602,1)=395.915696463
Q2(603,0)=6020
Q2(603,1)=394.470380512
Q2(604,0)=6030
Q2(604,1)=392.994030044
Q2(605,0)=6040
Q2(605,1)=391.486832244
Q2(606,0)=6050
Q2(606,1)=389.948978212
Q2(607,0)=6060
Q2(607,1)=388.380662934
Q2(608,0)=6070
Q2(608,1)=386.782085255
Q2(609,0)=6080
Q2(609,1)=385.153447862
Q2(610,0)=6090
Q2(610,1)=383.49495725
Q2(611,0)=6100
Q2(611,1)=381.806823699
Q2(612,0)=6110
Q2(612,1)=380.089261249
Q2(613,0)=6120
Q2(613,1)=378.34248767
Q2(614,0)=6130
Q2(614,1)=376.566724438
Q2(615,0)=6140
Q2(615,1)=374.762196701
Q2(616,0)=6150
Q2(616,1)=372.929133257
Q2(617,0)=6160
Q2(617,1)=371.067766521
Q2(618,0)=6170
Q2(618,1)=369.178332496
Q2(619,0)=6180
Q2(619,1)=367.261070745
Q2(620,0)=6190
Q2(620,1)=365.316224359
Q2(621,0)=6200
Q2(621,1)=363.344039925
Q2(622,0)=6210
Q2(622,1)=361.344767497
Q2(623,0)=6220
Q2(623,1)=359.318660566
Q2(624,0)=6230
Q2(624,1)=357.26597602
Q2(625,0)=6240
Q2(625,1)=355.186974123
Q2(626,0)=6250
Q2(626,1)=353.08191847
Q2(627,0)=6260
Q2(627,1)=350.951075964
Q2(628,0)=6270
Q2(628,1)=348.794716775
Q2(629,0)=6280
Q2(629,1)=346.613114308
Q2(630,0)=6290
Q2(630,1)=344.406545171
Q2(631,0)=6300
Q2(631,1)=342.175289136
Q2(632,0)=6310
Q2(632,1)=339.919629103
Q2(633,0)=6320
Q2(633,1)=337.639851071
Q2(634,0)=6330
Q2(634,1)=335.336244092
Q2(635,0)=6340
Q2(635,1)=333.009100243
Q2(636,0)=6350
Q2(636,1)=330.658714583
Q2(637,0)=6360
Q2(637,1)=328.285385119
Q2(638,0)=6370
Q2(638,1)=325.889412766
Q2(639,0)=6380
Q2(639,1)=323.471101311
Q2(640,0)=6390
Q2(640,1)=321.030757373
Q2(641,0)=6400
Q2(641,1)=318.568690365
Q2(642,0)=6410
Q2(642,1)=316.085212453
Q2(643,0)=6420
Q2(643,1)=313.580638518
Q2(644,0)=6430
Q2(644,1)=311.055286117
Q2(645,0)=6440
Q2(645,1)=308.509475441
Q2(646,0)=6450
Q2(646,1)=305.943529273
Q2(647,0)=6460
Q2(647,1)=303.357772953
Q2(648,0)=6470
Q2(648,1)=300.752534328
Q2(649,0)=6480
Q2(649,1)=298.128143719
Q2(650,0)=6490
Q2(650,1)=295.484933874
Q2(651,0)=6500
Q2(651,1)=292.823239926
Q2(652,0)=6510
Q2(652,1)=290.143399353
Q2(653,0)=6520
Q2(653,1)=287.445751934
Q2(654,0)=6530
Q2(654,1)=284.730639703
Q2(655,0)=6540
Q2(655,1)=281.998406913
Q2(656,0)=6550
Q2(656,1)=279.249399983
Q2(657,0)=6560
Q2(657,1)=276.483967463
Q2(658,0)=6570
Q2(658,1)=273.702459982
Q2(659,0)=6580
Q2(659,1)=270.90523021
Q2(660,0)=6590
Q2(660,1)=268.092632808
Q2(661,0)=6600
Q2(661,1)=265.265024388
Q2(662,0)=6610
Q2(662,1)=262.422763462
Q2(663,0)=6620
Q2(663,1)=259.566210404
Q2(664,0)=6630
Q2(664,1)=256.695727396
Q2(665,0)=6640
Q2(665,1)=253.811678389
Q2(666,0)=6650
Q2(666,1)=250.914429052
Q2(667,0)=6660
Q2(667,1)=248.00434673
Q2(668,0)=6670
Q2(668,1)=245.081800394
Q2(669,0)=6680
Q2(669,1)=242.147160593
Q2(670,0)=6690
Q2(670,1)=239.200799414
Q2(671,0)=6700
Q2(671,1)=236.243090426
Q2(672,0)=6710
Q2(672,1)=233.274408639
Q2(673,0)=6720
Q2(673,1)=230.295130454
Q2(674,0)=6730
Q2(674,1)=227.305633615
Q2(675,0)=6740
Q2(675,1)=224.306297161
Q2(676,0)=6750
Q2(676,1)=221.297501381
Q2(677,0)=6760
Q2(677,1)=218.27962776
Q2(678,0)=6770
Q2(678,1)=215.253058937
Q2(679,0)=6780
Q2(679,1)=212.218178651
Q2(680,0)=6790
Q2(680,1)=209.175371698
Q2(681,0)=6800
Q2(681,1)=206.125023875
Q2(682,0)=6810
Q2(682,1)=203.067521938
Q2(683,0)=6820
Q2(683,1)=200.00325355
Q2(684,0)=6830
Q2(684,1)=196.93260723
Q2(685,0)=6840
Q2(685,1)=193.855972307
Q2(686,0)=6850
Q2(686,1)=190.773738869
Q2(687,0)=6860
Q2(687,1)=187.686297715
Q2(688,0)=6870
Q2(688,1)=184.594040302
Q2(689,0)=6880
Q2(689,1)=181.497358699
Q2(690,0)=6890
Q2(690,1)=178.396645537
Q2(691,0)=6900
Q2(691,1)=175.292293956
Q2(692,0)=6910
Q2(692,1)=172.184697559
Q2(693,0)=6920
Q2(693,1)=169.074250358
Q2(694,0)=6930
Q2(694,1)=165.961346731
Q2(695,0)=6940
Q2(695,1)=162.846381362
Q2(696,0)=6950
Q2(696,1)=159.729749201
Q2(697,0)=6960
Q2(697,1)=156.611845406
Q2(698,0)=6970
Q2(698,1)=153.493065298
Q2(699,0)=6980
Q2(699,1)=150.37380431
Q2(700,0)=6990
Q2(700,1)=158.993707904
Q2(701,0)=7000
Q2(701,1)=170.844768376
Q2(702,0)=7010
Q2(702,1)=182.693147937
Q2(703,0)=7020
Q2(703,1)=194.537344323
Q2(704,0)=7030
Q2(704,1)=206.375855803
Q2(705,0)=7040
Q2(705,1)=218.207181366
Q2(706,0)=7050
Q2(706,1)=230.029820912
Q2(707,0)=7060
Q2(707,1)=241.842275442
Q2(708,0)=7070
Q2(708,1)=253.64304725
Q2(709,0)=7080
Q2(709,1)=265.430640109
Q2(710,0)=7090
Q2(710,1)=277.203559465
Q2(711,0)=7100
Q2(711,1)=288.960312624
Q2(712,0)=7110
Q2(712,1)=300.699408939
Q2(713,0)=7120
Q2(713,1)=312.419360007
Q2(714,0)=7130
Q2(714,1)=324.118679847
Q2(715,0)=7140
Q2(715,1)=335.795885097
Q2(716,0)=7150
Q2(716,1)=347.449495198
Q2(717,0)=7160
Q2(717,1)=359.078032584
Q2(718,0)=7170
Q2(718,1)=370.680022866
Q2(719,0)=7180
Q2(719,1)=382.253995021
Q2(720,0)=7190
Q2(720,1)=393.79848158
Q2(721,0)=7200
Q2(721,1)=405.312018812
Q2(722,0)=7210
Q2(722,1)=416.793146909
Q2(723,0)=7220
Q2(723,1)=428.240410173
Q2(724,0)=7230
Q2(724,1)=439.6523572
Q2(725,0)=7240
Q2(725,1)=451.027541063
Q2(726,0)=7250
Q2(726,1)=462.364519497
Q2(727,0)=7260
Q2(727,1)=473.66185508
Q2(728,0)=7270
Q2(728,1)=484.918115418
Q2(729,0)=7280
Q2(729,1)=496.131873324
Q2(730,0)=7290
Q2(730,1)=507.301707
Q2(731,0)=7300
Q2(731,1)=518.426200215
Q2(732,0)=7310
Q2(732,1)=149.700343687
Q2(733,0)=7320
Q2(733,1)=149.700343687
Q2(734,0)=7330
Q2(734,1)=149.700343687
Q2(735,0)=7340
Q2(735,1)=149.700343687
Q2(736,0)=7350
Q2(736,1)=149.700343687
Q2(737,0)=7360
Q2(737,1)=149.700343687
Q2(738,0)=7370
Q2(738,1)=149.700343687
Q2(739,0)=7380
Q2(739,1)=149.700343687
Q2(740,0)=7390
Q2(740,1)=149.700343687
Q2(741,0)=7400
Q2(741,1)=149.700343687
Q2(742,0)=7410
Q2(742,1)=149.700343687
Q2(743,0)=7420
Q2(743,1)=149.700343687
Q2(744,0)=7430
Q2(744,1)=149.700343687
Q2(745,0)=7440
Q2(745,1)=149.700343687
Q2(746,0)=7450
Q2(746,1)=149.700343687
Q2(747,0)=7460
Q2(747,1)=149.700343687
Q2(748,0)=7470
Q2(748,1)=149.700343687
Q2(749,0)=7480
Q2(749,1)=149.700343687
Q2(750,0)=7490
Q2(750,1)=149.700343687
Q2(751,0)=7500
Q2(751,1)=149.700343687
Q2(752,0)=7510
Q2(752,1)=149.700343687
Q2(753,0)=7520
Q2(753,1)=149.700343687
Q2(754,0)=7530
Q2(754,1)=149.700343687
Q2(755,0)=7540
Q2(755,1)=149.700343687
Q2(756,0)=7550
Q2(756,1)=149.700343687
Q2(757,0)=7560
Q2(757,1)=149.700343687
Q2(758,0)=7570
Q2(758,1)=149.700343687
Q2(759,0)=7580
Q2(759,1)=149.700343687
Q2(760,0)=7590
Q2(760,1)=149.700343687
Q2(761,0)=7600
Q2(761,1)=149.700343687
Q2(762,0)=7610
Q2(762,1)=149.700343687
Q2(763,0)=7620
Q2(763,1)=149.700343687
Q2(764,0)=7630
Q2(764,1)=149.700343687
Q2(765,0)=7640
Q2(765,1)=149.700343687
Q2(766,0)=7650
Q2(766,1)=149.700343687
Q2(767,0)=7660
Q2(767,1)=149.700343687
Q2(768,0)=7670
Q2(768,1)=149.700343687
Q2(769,0)=7680
Q2(769,1)=149.700343687
Q2(770,0)=7690
Q2(770,1)=149.700343687
Q2(771,0)=7700
Q2(771,1)=149.700343687
Q2(772,0)=7710
Q2(772,1)=149.700343687
Q2(773,0)=7720
Q2(773,1)=149.700343687
Q2(774,0)=7730
Q2(774,1)=149.700343687
Q2(775,0)=7740
Q2(775,1)=149.700343687
Q2(776,0)=7750
Q2(776,1)=149.700343687
Q2(777,0)=7760
Q2(777,1)=149.700343687
Q2(778,0)=7770
Q2(778,1)=149.700343687
Q2(779,0)=7780
Q2(779,1)=149.700343687
Q2(780,0)=7790
Q2(780,1)=149.700343687
Q2(781,0)=7800
Q2(781,1)=149.700343687
Q2(782,0)=7810
Q2(782,1)=149.700343687
Q2(783,0)=7820
Q2(783,1)=149.700343687
Q2(784,0)=7830
Q2(784,1)=149.700343687
Q2(785,0)=7840
Q2(785,1)=149.700343687
Q2(786,0)=7850
Q2(786,1)=149.700343687
Q2(787,0)=7860
Q2(787,1)=149.700343687
Q2(788,0)=7870
Q2(788,1)=149.700343687
Q2(789,0)=7880
Q2(789,1)=149.700343687
Q2(790,0)=7890
Q2(790,1)=149.700343687
Q2(791,0)=7900
Q2(791,1)=149.700343687
Q2(792,0)=7910
Q2(792,1)=149.700343687
Q2(793,0)=7920
Q2(793,1)=149.700343687
Q2(794,0)=7930
Q2(794,1)=149.700343687
Q2(795,0)=7940
Q2(795,1)=149.700343687
Q2(796,0)=7950
Q2(796,1)=149.700343687
Q2(797,0)=7960
Q2(797,1)=149.700343687
Q2(798,0)=7970
Q2(798,1)=149.700343687
Q2(799,0)=7980
Q2(799,1)=149.700343687
Q2(800,0)=7990
Q2(800,1)=149.700343687
Q2(801,0)=8000
Q2(801,1)=149.700343687
Q2(802,0)=8010
Q2(802,1)=149.700343687
Q2(803,0)=8020
Q2(803,1)=149.700343687
Q2(804,0)=8030
Q2(804,1)=149.700343687
Q2(805,0)=8040
Q2(805,1)=149.700343687
Q2(806,0)=8050
Q2(806,1)=149.700343687
Q2(807,0)=8060
Q2(807,1)=149.700343687
Q2(808,0)=8070
Q2(808,1)=149.700343687
Q2(809,0)=8080
Q2(809,1)=149.700343687
Q2(810,0)=8090
Q2(810,1)=149.700343687
Q2(811,0)=8100
Q2(811,1)=149.700343687
Q2(812,0)=8110
Q2(812,1)=149.700343687
Q2(813,0)=8120
Q2(813,1)=149.700343687
Q2(814,0)=8130
Q2(814,1)=149.700343687
Q2(815,0)=8140
Q2(815,1)=149.700343687
Q2(816,0)=8150
Q2(816,1)=149.700343687
Q2(817,0)=8160
Q2(817,1)=149.700343687
Q2(818,0)=8170
Q2(818,1)=149.700343687
Q2(819,0)=8180
Q2(819,1)=149.700343687
Q2(820,0)=8190
Q2(820,1)=149.700343687
Q2(821,0)=8200
Q2(821,1)=149.700343687
Q2(822,0)=8210
Q2(822,1)=149.700343687
Q2(823,0)=8220
Q2(823,1)=149.700343687
Q2(824,0)=8230
Q2(824,1)=149.700343687
Q2(825,0)=8240
Q2(825,1)=149.700343687
Q2(826,0)=8250
Q2(826,1)=149.700343687
Q2(827,0)=8260
Q2(827,1)=149.700343687
Q2(828,0)=8270
Q2(828,1)=149.700343687
Q2(829,0)=8280
Q2(829,1)=149.700343687
Q2(830,0)=8290
Q2(830,1)=149.700343687
Q2(831,0)=8300
Q2(831,1)=149.700343687
Q2(832,0)=8310
Q2(832,1)=149.700343687
Q2(833,0)=8320
Q2(833,1)=149.700343687
Q2(834,0)=8330
Q2(834,1)=149.700343687
Q2(835,0)=8340
Q2(835,1)=149.700343687
Q2(836,0)=8350
Q2(836,1)=149.700343687
Q2(837,0)=8360
Q2(837,1)=149.700343687
Q2(838,0)=8370
Q2(838,1)=149.700343687
Q2(839,0)=8380
Q2(839,1)=149.700343687
Q2(840,0)=8390
Q2(840,1)=149.700343687
Q2(841,0)=8400
Q2(841,1)=149.700343687
Q2(842,0)=8410
Q2(842,1)=149.700343687
Q2(843,0)=8420
Q2(843,1)=149.700343687
Q2(844,0)=8430
Q2(844,1)=149.700343687
Q2(845,0)=8440
Q2(845,1)=149.700343687
Q2(846,0)=8450
Q2(846,1)=149.700343687
Q2(847,0)=8460
Q2(847,1)=149.700343687
Q2(848,0)=8470
Q2(848,1)=149.700343687
Q2(849,0)=8480
Q2(849,1)=149.700343687
Q2(850,0)=8490
Q2(850,1)=149.700343687
Q2(851,0)=8500
Q2(851,1)=149.700343687
Q2(852,0)=8510
Q2(852,1)=149.700343687
Q2(853,0)=8520
Q2(853,1)=149.700343687
Q2(854,0)=8530
Q2(854,1)=149.700343687
Q2(855,0)=8540
Q2(855,1)=149.700343687
Q2(856,0)=8550
Q2(856,1)=149.700343687
Q2(857,0)=8560
Q2(857,1)=149.700343687
Q2(858,0)=8570
Q2(858,1)=149.700343687
Q2(859,0)=8580
Q2(859,1)=149.700343687
Q2(860,0)=8590
Q2(860,1)=149.700343687
Q2(861,0)=8600
Q2(861,1)=149.700343687
Q2(862,0)=8610
Q2(862,1)=149.700343687
Q2(863,0)=8620
Q2(863,1)=149.700343687
Q2(864,0)=8630
Q2(864,1)=149.700343687
Q2(865,0)=8640
Q2(865,1)=149.700343687
Q2(866,0)=8650
Q2(866,1)=149.700343687
Q2(867,0)=8660
Q2(867,1)=149.700343687
Q2(868,0)=8670
Q2(868,1)=149.700343687
Q2(869,0)=8680
Q2(869,1)=149.700343687
Q2(870,0)=8690
Q2(870,1)=149.700343687
Q2(871,0)=8700
Q2(871,1)=149.700343687
Q2(872,0)=8710
Q2(872,1)=149.700343687
Q2(873,0)=8720
Q2(873,1)=149.700343687
Q2(874,0)=8730
Q2(874,1)=149.700343687
Q2(875,0)=8740
Q2(875,1)=149.700343687
Q2(876,0)=8750
Q2(876,1)=149.700343687
Q2(877,0)=8760
Q2(877,1)=149.700343687
Q2(878,0)=8770
Q2(878,1)=149.700343687
Q2(879,0)=8780
Q2(879,1)=149.700343687
Q2(880,0)=8790
Q2(880,1)=149.700343687
Q2(881,0)=8800
Q2(881,1)=149.700343687
Q2(882,0)=8810
Q2(882,1)=149.700343687
Q2(883,0)=8820
Q2(883,1)=149.700343687
Q2(884,0)=8830
Q2(884,1)=149.700343687
Q2(885,0)=8840
Q2(885,1)=149.700343687
Q2(886,0)=8850
Q2(886,1)=149.700343687
Q2(887,0)=8860
Q2(887,1)=149.700343687
Q2(888,0)=8870
Q2(888,1)=149.700343687
Q2(889,0)=8880
Q2(889,1)=149.700343687
Q2(890,0)=8890
Q2(890,1)=149.700343687
Q2(891,0)=8900
Q2(891,1)=149.700343687
Q2(892,0)=8910
Q2(892,1)=149.700343687
Q2(893,0)=8920
Q2(893,1)=149.700343687
Q2(894,0)=8930
Q2(894,1)=149.700343687
Q2(895,0)=8940
Q2(895,1)=149.700343687
Q2(896,0)=8950
Q2(896,1)=149.700343687
Q2(897,0)=8960
Q2(897,1)=149.700343687
Q2(898,0)=8970
Q2(898,1)=149.700343687
Q2(899,0)=8980
Q2(899,1)=149.700343687
Q2(900,0)=8990
Q2(900,1)=149.700343687
Q2(901,0)=9000
Q2(901,1)=149.700343687
Q2(902,0)=9010
Q2(902,1)=149.700343687
Q2(903,0)=9020
Q2(903,1)=149.700343687
Q2(904,0)=9030
Q2(904,1)=149.700343687
Q2(905,0)=9040
Q2(905,1)=149.700343687
Q2(906,0)=9050
Q2(906,1)=149.700343687
Q2(907,0)=9060
Q2(907,1)=149.700343687
Q2(908,0)=9070
Q2(908,1)=149.700343687
Q2(909,0)=9080
Q2(909,1)=149.700343687
Q2(910,0)=9090
Q2(910,1)=149.700343687
Q2(911,0)=9100
Q2(911,1)=149.700343687
Q2(912,0)=9110
Q2(912,1)=149.700343687
Q2(913,0)=9120
Q2(913,1)=149.700343687
Q2(914,0)=9130
Q2(914,1)=149.700343687
Q2(915,0)=9140
Q2(915,1)=149.700343687
Q2(916,0)=9150
Q2(916,1)=149.700343687
Q2(917,0)=9160
Q2(917,1)=149.700343687
Q2(918,0)=9170
Q2(918,1)=149.700343687
Q2(919,0)=9180
Q2(919,1)=149.700343687
Q2(920,0)=9190
Q2(920,1)=149.700343687
Q2(921,0)=9200
Q2(921,1)=149.700343687
Q2(922,0)=9210
Q2(922,1)=149.700343687
Q2(923,0)=9220
Q2(923,1)=149.700343687
Q2(924,0)=9230
Q2(924,1)=149.700343687
Q2(925,0)=9240
Q2(925,1)=149.700343687
Q2(926,0)=9250
Q2(926,1)=149.700343687
Q2(927,0)=9260
Q2(927,1)=149.700343687
Q2(928,0)=9270
Q2(928,1)=149.700343687
Q2(929,0)=9280
Q2(929,1)=149.700343687
Q2(930,0)=9290
Q2(930,1)=149.700343687
Q2(931,0)=9300
Q2(931,1)=149.700343687
Q2(932,0)=9310
Q2(932,1)=149.700343687
Q2(933,0)=9320
Q2(933,1)=149.700343687
Q2(934,0)=9330
Q2(934,1)=149.700343687
Q2(935,0)=9340
Q2(935,1)=149.700343687
Q2(936,0)=9350
Q2(936,1)=149.700343687
Q2(937,0)=9360
Q2(937,1)=149.700343687
Q2(938,0)=9370
Q2(938,1)=149.700343687
Q2(939,0)=9380
Q2(939,1)=149.700343687
Q2(940,0)=9390
Q2(940,1)=149.700343687
Q2(941,0)=9400
Q2(941,1)=149.700343687
Q2(942,0)=9410
Q2(942,1)=149.700343687
Q2(943,0)=9420
Q2(943,1)=149.700343687
Q2(944,0)=9430
Q2(944,1)=149.700343687
Q2(945,0)=9440
Q2(945,1)=149.700343687
Q2(946,0)=9450
Q2(946,1)=149.700343687
Q2(947,0)=9460
Q2(947,1)=512.110818096
Q2(948,0)=9470
Q2(948,1)=500.960388663
Q2(949,0)=9480
Q2(949,1)=489.765422789
Q2(950,0)=9490
Q2(950,1)=478.527339891
Q2(951,0)=9500
Q2(951,1)=467.24756485
Q2(952,0)=9510
Q2(952,1)=455.927527834
Q2(953,0)=9520
Q2(953,1)=444.568664118
Q2(954,0)=9530
Q2(954,1)=433.172413897
Q2(955,0)=9540
Q2(955,1)=421.740222107
Q2(956,0)=9550
Q2(956,1)=410.273538243
Q2(957,0)=9560
Q2(957,1)=398.77381617
Q2(958,0)=9570
Q2(958,1)=387.242513944
Q2(959,0)=9580
Q2(959,1)=375.681093626
Q2(960,0)=9590
Q2(960,1)=364.091021092
Q2(961,0)=9600
Q2(961,1)=352.473765856
Q2(962,0)=9610
Q2(962,1)=340.830800873
Q2(963,0)=9620
Q2(963,1)=329.163602363
Q2(964,0)=9630
Q2(964,1)=317.473649614
Q2(965,0)=9640
Q2(965,1)=305.762424802
Q2(966,0)=9650
Q2(966,1)=294.031412799
Q2(967,0)=9660
Q2(967,1)=282.282100987
Q2(968,0)=9670
Q2(968,1)=270.515979065
Q2(969,0)=9680
Q2(969,1)=258.734538868
Q2(970,0)=9690
Q2(970,1)=246.939274169
Q2(971,0)=9700
Q2(971,1)=235.131680497
Q2(972,0)=9710
Q2(972,1)=223.313254942
Q2(973,0)=9720
Q2(973,1)=211.485495968
Q2(974,0)=9730
Q2(974,1)=199.649903223
Q2(975,0)=9740
Q2(975,1)=187.807977349
Q2(976,0)=9750
Q2(976,1)=175.961219787
Q2(977,0)=9760
Q2(977,1)=164.111132596
Q2(978,0)=9770
Q2(978,1)=152.259218254
Q2(979,0)=9780
Q2(979,1)=152.146229442
Q2(980,0)=9790
Q2(980,1)=155.265265704
Q2(981,0)=9800
Q2(981,1)=158.383596386
Q2(982,0)=9810
Q2(982,1)=161.500826115
Q2(983,0)=9820
Q2(983,1)=164.616559655
Q2(984,0)=9830
Q2(984,1)=167.73040196
Q2(985,0)=9840
Q2(985,1)=170.841958224
Q2(986,0)=9850
Q2(986,1)=173.950833933
Q2(987,0)=9860
Q2(987,1)=177.056634909
Q2(988,0)=9870
Q2(988,1)=180.158967367
Q2(989,0)=9880
Q2(989,1)=183.257437961
Q2(990,0)=9890
Q2(990,1)=186.351653834
Q2(991,0)=9900
Q2(991,1)=189.441222669
Q2(992,0)=9910
Q2(992,1)=192.525752737
Q2(993,0)=9920
Q2(993,1)=195.604852949
Q2(994,0)=9930
Q2(994,1)=198.678132906
Q2(995,0)=9940
Q2(995,1)=201.745202944
Q2(996,0)=9950
Q2(996,1)=204.805674187
Q2(997,0)=9960
Q2(997,1)=207.859158597
Q2(998,0)=9970
Q2(998,1)=210.905269022
Q2(999,0)=9980
Q2(999,1)=213.943619243
Q2(1000,0)=9990
Q2(1000,1)=216.973824026
Q2(1001,0)=10000
Q2(1001,1)=219.99549917
Q2(1002,0)=10010
Q2(1002,1)=223.008261555
Q2(1003,0)=10020
Q2(1003,1)=226.011729193
Q2(1004,0)=10030
Q2(1004,1)=229.00552127
Q2(1005,0)=10040
Q2(1005,1)=231.989258204
Q2(1006,0)=10050
Q2(1006,1)=234.962561685
Q2(1007,0)=10060
Q2(1007,1)=237.925054725
Q2(1008,0)=10070
Q2(1008,1)=240.876361709
Q2(1009,0)=10080
Q2(1009,1)=243.816108439
Q2(1010,0)=10090
Q2(1010,1)=246.743922183
Q2(1011,0)=10100
Q2(1011,1)=249.659431723
Q2(1012,0)=10110
Q2(1012,1)=252.562267398
Q2(1013,0)=10120
Q2(1013,1)=255.452061158
Q2(1014,0)=10130
Q2(1014,1)=258.328446604
Q2(1015,0)=10140
Q2(1015,1)=261.191059037
Q2(1016,0)=10150
Q2(1016,1)=264.039535505
Q2(1017,0)=10160
Q2(1017,1)=266.873514849
Q2(1018,0)=10170
Q2(1018,1)=269.692637747
Q2(1019,0)=10180
Q2(1019,1)=272.49654676
Q2(1020,0)=10190
Q2(1020,1)=275.28488638
Q2(1021,0)=10200
Q2(1021,1)=278.057303072
Q2(1022,0)=10210
Q2(1022,1)=280.81344532
Q2(1023,0)=10220
Q2(1023,1)=283.55296367
Q2(1024,0)=10230
Q2(1024,1)=286.275510779
Q2(1025,0)=10240
Q2(1025,1)=288.980741452
Q2(1026,0)=10250
Q2(1026,1)=291.668312693
Q2(1027,0)=10260
Q2(1027,1)=294.337883742
Q2(1028,0)=10270
Q2(1028,1)=296.989116124
Q2(1029,0)=10280
Q2(1029,1)=299.621673687
Q2(1030,0)=10290
Q2(1030,1)=302.235222648
Q2(1031,0)=10300
Q2(1031,1)=304.829431634
Q2(1032,0)=10310
Q2(1032,1)=307.403971724
Q2(1033,0)=10320
Q2(1033,1)=309.958516491
Q2(1034,0)=10330
Q2(1034,1)=312.492742042
Q2(1035,0)=10340
Q2(1035,1)=315.006327061
Q2(1036,0)=10350
Q2(1036,1)=317.498952851
Q2(1037,0)=10360
Q2(1037,1)=319.970303369
Q2(1038,0)=10370
Q2(1038,1)=322.420065272
Q2(1039,0)=10380
Q2(1039,1)=324.847927954
Q2(1040,0)=10390
Q2(1040,1)=327.253583583
Q2(1041,0)=10400
Q2(1041,1)=329.636727147
Q2(1042,0)=10410
Q2(1042,1)=331.997056486
Q2(1043,0)=10420
Q2(1043,1)=334.33427233
Q2(1044,0)=10430
Q2(1044,1)=336.648078345
Q2(1045,0)=10440
Q2(1045,1)=338.938181161
Q2(1046,0)=10450
Q2(1046,1)=341.204290415
Q2(1047,0)=10460
Q2(1047,1)=343.446118786
Q2(1048,0)=10470
Q2(1048,1)=345.663382032
Q2(1049,0)=10480
Q2(1049,1)=347.855799023
Q2(1050,0)=10490
Q2(1050,1)=350.023091783
Q2(1051,0)=10500
Q2(1051,1)=352.16498552
Q2(1052,0)=10510
Q2(1052,1)=354.281208662
Q2(1053,0)=10520
Q2(1053,1)=356.371492891
Q2(1054,0)=10530
Q2(1054,1)=358.43557318
Q2(1055,0)=10540
Q2(1055,1)=360.473187822
Q2(1056,0)=10550
Q2(1056,1)=362.484078468
Q2(1057,0)=10560
Q2(1057,1)=364.467990156
Q2(1058,0)=10570
Q2(1058,1)=366.424671344
Q2(1059,0)=10580
Q2(1059,1)=368.353873944
Q2(1060,0)=10590
Q2(1060,1)=370.255353351
Q2(1061,0)=10600
Q2(1061,1)=372.128868476
Q2(1062,0)=10610
Q2(1062,1)=373.974181775
Q2(1063,0)=10620
Q2(1063,1)=375.79105928
Q2(1064,0)=10630
Q2(1064,1)=377.579270627
Q2(1065,0)=10640
Q2(1065,1)=379.338589089
Q2(1066,0)=10650
Q2(1066,1)=381.0687916
Q2(1067,0)=10660
Q2(1067,1)=382.769658788
Q2(1068,0)=10670
Q2(1068,1)=384.440974999
Q2(1069,0)=10680
Q2(1069,1)=386.082528325
Q2(1070,0)=10690
Q2(1070,1)=387.694110633
Q2(1071,0)=10700
Q2(1071,1)=389.27551759
Q2(1072,0)=10710
Q2(1072,1)=390.826548688
Q2(1073,0)=10720
Q2(1073,1)=392.347007272
Q2(1074,0)=10730
Q2(1074,1)=393.836700561
Q2(1075,0)=10740
Q2(1075,1)=395.295439678
Q2(1076,0)=10750
Q2(1076,1)=396.723039666
Q2(1077,0)=10760
Q2(1077,1)=398.119319521
Q2(1078,0)=10770
Q2(1078,1)=399.484102207
Q2(1079,0)=10780
Q2(1079,1)=400.817214683
Q2(1080,0)=10790
Q2(1080,1)=402.118487923
Q2(1081,0)=10800
Q2(1081,1)=403.387756937
Q2(1082,0)=10810
Q2(1082,1)=404.624860795
Q2(1083,0)=10820
Q2(1083,1)=405.829642643
Q2(1084,0)=10830
Q2(1084,1)=407.001949727
Q2(1085,0)=10840
Q2(1085,1)=408.141633408
Q2(1086,0)=10850
Q2(1086,1)=409.248549187
Q2(1087,0)=10860
Q2(1087,1)=410.322556716
Q2(1088,0)=10870
Q2(1088,1)=411.363519822
Q2(1089,0)=10880
Q2(1089,1)=412.37130652
Q2(1090,0)=10890
Q2(1090,1)=413.345789033
Q2(1091,0)=10900
Q2(1091,1)=414.286843805
Q2(1092,0)=10910
Q2(1092,1)=415.194351519
Q2(1093,0)=10920
Q2(1093,1)=416.068197113
Q2(1094,0)=10930
Q2(1094,1)=416.908269791
Q2(1095,0)=10940
Q2(1095,1)=417.71446304
Q2(1096,0)=10950
Q2(1096,1)=418.486674641
Q2(1097,0)=10960
Q2(1097,1)=419.224806687
Q2(1098,0)=10970
Q2(1098,1)=419.928765588
Q2(1099,0)=10980
Q2(1099,1)=420.59846209
Q2(1100,0)=10990
Q2(1100,1)=421.23381128
Q2(1101,0)=11000
Q2(1101,1)=421.834732604
Q2(1102,0)=11010
Q2(1102,1)=422.40114987
Q2(1103,0)=11020
Q2(1103,1)=422.932991262
Q2(1104,0)=11030
Q2(1104,1)=423.430189347
Q2(1105,0)=11040
Q2(1105,1)=423.892681085
Q2(1106,0)=11050
Q2(1106,1)=424.320407836
Q2(1107,0)=11060
Q2(1107,1)=424.713315369
Q2(1108,0)=11070
Q2(1108,1)=425.071353868
Q2(1109,0)=11080
Q2(1109,1)=425.394477935
Q2(1110,0)=11090
Q2(1110,1)=425.682646603
Q2(1111,0)=11100
Q2(1111,1)=425.935823333
Q2(1112,0)=11110
Q2(1112,1)=426.153976026
Q2(1113,0)=11120
Q2(1113,1)=426.337077022
Q2(1114,0)=11130
Q2(1114,1)=426.485103105
Q2(1115,0)=11140
Q2(1115,1)=426.598035507
Q2(1116,0)=11150
Q2(1116,1)=426.67585991
Q2(1117,0)=11160
Q2(1117,1)=426.718566445
*DIM,Q3,TABLE,1117,1,1,TIME
Q3(1,0)=0
Q3(1,1)=145.468206423
Q3(2,0)=10
Q3(2,1)=136.985674549
Q3(3,0)=20
Q3(3,1)=136.976833466
Q3(4,0)=30
Q3(4,1)=136.956718081
Q3(5,0)=40
Q3(5,1)=136.925330943
Q3(6,0)=50
Q3(6,1)=136.882676033
Q3(7,0)=60
Q3(7,1)=136.828758758
Q3(8,0)=70
Q3(8,1)=136.763585955
Q3(9,0)=80
Q3(9,1)=136.687165887
Q3(10,0)=90
Q3(10,1)=136.599508243
Q3(11,0)=100
Q3(11,1)=136.500624138
Q3(12,0)=110
Q3(12,1)=136.390526108
Q3(13,0)=120
Q3(13,1)=136.269228114
Q3(14,0)=130
Q3(14,1)=136.136745535
Q3(15,0)=140
Q3(15,1)=135.993095169
Q3(16,0)=150
Q3(16,1)=135.838295228
Q3(17,0)=160
Q3(17,1)=135.67236534
Q3(18,0)=170
Q3(18,1)=135.495326543
Q3(19,0)=180
Q3(19,1)=135.307201285
Q3(20,0)=190
Q3(20,1)=135.108013418
Q3(21,0)=200
Q3(21,1)=134.897788196
Q3(22,0)=210
Q3(22,1)=134.676552275
Q3(23,0)=220
Q3(23,1)=134.444333705
Q3(24,0)=230
Q3(24,1)=134.201161929
Q3(25,0)=240
Q3(25,1)=133.947067779
Q3(26,0)=250
Q3(26,1)=133.682083472
Q3(27,0)=260
Q3(27,1)=133.406242605
Q3(28,0)=270
Q3(28,1)=133.119580152
Q3(29,0)=280
Q3(29,1)=132.82213246
Q3(30,0)=290
Q3(30,1)=132.513937241
Q3(31,0)=300
Q3(31,1)=132.195033573
Q3(32,0)=310
Q3(32,1)=131.865461888
Q3(33,0)=320
Q3(33,1)=131.525263974
Q3(34,0)=330
Q3(34,1)=131.174482965
Q3(35,0)=340
Q3(35,1)=130.813163336
Q3(36,0)=350
Q3(36,1)=130.441350899
Q3(37,0)=360
Q3(37,1)=130.059092796
Q3(38,0)=370
Q3(38,1)=129.666437495
Q3(39,0)=380
Q3(39,1)=129.263434779
Q3(40,0)=390
Q3(40,1)=128.850135747
Q3(41,0)=400
Q3(41,1)=128.4265928
Q3(42,0)=410
Q3(42,1)=127.992859639
Q3(43,0)=420
Q3(43,1)=127.548991258
Q3(44,0)=430
Q3(44,1)=127.095043936
Q3(45,0)=440
Q3(45,1)=126.631075227
Q3(46,0)=450
Q3(46,1)=126.15714396
Q3(47,0)=460
Q3(47,1)=125.673310224
Q3(48,0)=470
Q3(48,1)=125.179635365
Q3(49,0)=480
Q3(49,1)=124.676181976
Q3(50,0)=490
Q3(50,1)=124.163013889
Q3(51,0)=500
Q3(51,1)=123.640196171
Q3(52,0)=510
Q3(52,1)=123.107795109
Q3(53,0)=520
Q3(53,1)=122.565878207
Q3(54,0)=530
Q3(54,1)=122.014514174
Q3(55,0)=540
Q3(55,1)=121.453772919
Q3(56,0)=550
Q3(56,1)=120.883725537
Q3(57,0)=560
Q3(57,1)=120.304444306
Q3(58,0)=570
Q3(58,1)=119.716002673
Q3(59,0)=580
Q3(59,1)=119.118475247
Q3(60,0)=590
Q3(60,1)=118.511937788
Q3(61,0)=600
Q3(61,1)=117.8964672
Q3(62,0)=610
Q3(62,1)=117.272141519
Q3(63,0)=620
Q3(63,1)=116.639039903
Q3(64,0)=630
Q3(64,1)=115.997242623
Q3(65,0)=640
Q3(65,1)=115.346831054
Q3(66,0)=650
Q3(66,1)=114.68788766
Q3(67,0)=660
Q3(67,1)=114.020495991
Q3(68,0)=670
Q3(68,1)=113.344740665
Q3(69,0)=680
Q3(69,1)=112.660707361
Q3(70,0)=690
Q3(70,1)=111.968482808
Q3(71,0)=700
Q3(71,1)=111.268154774
Q3(72,0)=710
Q3(72,1)=110.559812054
Q3(73,0)=720
Q3(73,1)=109.843544459
Q3(74,0)=730
Q3(74,1)=109.119442804
Q3(75,0)=740
Q3(75,1)=108.387598899
Q3(76,0)=750
Q3(76,1)=107.648105536
Q3(77,0)=760
Q3(77,1)=106.901056473
Q3(78,0)=770
Q3(78,1)=106.146546431
Q3(79,0)=780
Q3(79,1)=105.384671075
Q3(80,0)=790
Q3(80,1)=104.615527001
Q3(81,0)=800
Q3(81,1)=103.839211732
Q3(82,0)=810
Q3(82,1)=103.055823696
Q3(83,0)=820
Q3(83,1)=102.265462219
Q3(84,0)=830
Q3(84,1)=101.468227511
Q3(85,0)=840
Q3(85,1)=100.664220656
Q3(86,0)=850
Q3(86,1)=99.8535435916
Q3(87,0)=860
Q3(87,1)=99.0362991058
Q3(88,0)=870
Q3(88,1)=98.212590817
Q3(89,0)=880
Q3(89,1)=97.3825231634
Q3(90,0)=890
Q3(90,1)=96.5462013899
Q3(91,0)=900
Q3(91,1)=95.703731534
Q3(92,0)=910
Q3(92,1)=94.8552204131
Q3(93,0)=920
Q3(93,1)=94.0007756101
Q3(94,0)=930
Q3(94,1)=93.1405054607
Q3(95,0)=940
Q3(95,1)=92.2745190388
Q3(96,0)=950
Q3(96,1)=91.4029261435
Q3(97,0)=960
Q3(97,1)=90.5258372843
Q3(98,0)=970
Q3(98,1)=89.6433636678
Q3(99,0)=980
Q3(99,1)=88.7556171834
Q3(100,0)=990
Q3(100,1)=87.8627103888
Q3(101,0)=1000
Q3(101,1)=86.9647564961
Q3(102,0)=1010
Q3(102,1)=86.0618693574
Q3(103,0)=1020
Q3(103,1)=85.1541634501
Q3(104,0)=1030
Q3(104,1)=84.2417538629
Q3(105,0)=1040
Q3(105,1)=83.3247562805
Q3(106,0)=1050
Q3(106,1)=82.4032869696
Q3(107,0)=1060
Q3(107,1)=81.4774627638
Q3(108,0)=1070
Q3(108,1)=80.5474010486
Q3(109,0)=1080
Q3(109,1)=79.6132197472
Q3(110,0)=1090
Q3(110,1)=78.6750373049
Q3(111,0)=1100
Q3(111,1)=77.7329726743
Q3(112,0)=1110
Q3(112,1)=76.7871453002
Q3(113,0)=1120
Q3(113,1)=75.8376751046
Q3(114,0)=1130
Q3(114,1)=74.8846824713
Q3(115,0)=1140
Q3(115,1)=73.9282882308
Q3(116,0)=1150
Q3(116,1)=72.9686136446
Q3(117,0)=1160
Q3(117,1)=72.0057803906
Q3(118,0)=1170
Q3(118,1)=71.0399105467
Q3(119,0)=1180
Q3(119,1)=70.0711265762
Q3(120,0)=1190
Q3(120,1)=69.0995513116
Q3(121,0)=1200
Q3(121,1)=68.1253079394
Q3(122,0)=1210
Q3(122,1)=67.1485199845
Q3(123,0)=1220
Q3(123,1)=66.1693112944
Q3(124,0)=1230
Q3(124,1)=65.1878060233
Q3(125,0)=1240
Q3(125,1)=64.2041286168
Q3(126,0)=1250
Q3(126,1)=63.218403796
Q3(127,0)=1260
Q3(127,1)=62.2307565413
Q3(128,0)=1270
Q3(128,1)=61.241312077
Q3(129,0)=1280
Q3(129,1)=60.2501958554
Q3(130,0)=1290
Q3(130,1)=59.2575335405
Q3(131,0)=1300
Q3(131,1)=58.2634509925
Q3(132,0)=1310
Q3(132,1)=57.2680742517
Q3(133,0)=1320
Q3(133,1)=56.2715295223
Q3(134,0)=1330
Q3(134,1)=55.2739431569
Q3(135,0)=1340
Q3(135,1)=54.2754416398
Q3(136,0)=1350
Q3(136,1)=53.2761515716
Q3(137,0)=1360
Q3(137,1)=52.2761996527
Q3(138,0)=1370
Q3(138,1)=51.2757126677
Q3(139,0)=1380
Q3(139,1)=50.2748174687
Q3(140,0)=1390
Q3(140,1)=49.2736409598
Q3(141,0)=1400
Q3(141,1)=48.2723100807
Q3(142,0)=1410
Q3(142,1)=48.0561188355
Q3(143,0)=1420
Q3(143,1)=48.0561188355
Q3(144,0)=1430
Q3(144,1)=48.0561188355
Q3(145,0)=1440
Q3(145,1)=48.0561188355
Q3(146,0)=1450
Q3(146,1)=48.0561188355
Q3(147,0)=1460
Q3(147,1)=48.0561188355
Q3(148,0)=1470
Q3(148,1)=48.0561188355
Q3(149,0)=1480
Q3(149,1)=48.0561188355
Q3(150,0)=1490
Q3(150,1)=48.0561188355
Q3(151,0)=1500
Q3(151,1)=48.0561188355
Q3(152,0)=1510
Q3(152,1)=48.0561188355
Q3(153,0)=1520
Q3(153,1)=48.0561188355
Q3(154,0)=1530
Q3(154,1)=48.0561188355
Q3(155,0)=1540
Q3(155,1)=48.0561188355
Q3(156,0)=1550
Q3(156,1)=48.0561188355
Q3(157,0)=1560
Q3(157,1)=48.0561188355
Q3(158,0)=1570
Q3(158,1)=48.0561188355
Q3(159,0)=1580
Q3(159,1)=48.0561188355
Q3(160,0)=1590
Q3(160,1)=48.0561188355
Q3(161,0)=1600
Q3(161,1)=48.0561188355
Q3(162,0)=1610
Q3(162,1)=48.0561188355
Q3(163,0)=1620
Q3(163,1)=48.0561188355
Q3(164,0)=1630
Q3(164,1)=48.0561188355
Q3(165,0)=1640
Q3(165,1)=48.0561188355
Q3(166,0)=1650
Q3(166,1)=48.0561188355
Q3(167,0)=1660
Q3(167,1)=48.0561188355
Q3(168,0)=1670
Q3(168,1)=48.0561188355
Q3(169,0)=1680
Q3(169,1)=48.0561188355
Q3(170,0)=1690
Q3(170,1)=48.0561188355
Q3(171,0)=1700
Q3(171,1)=48.0561188355
Q3(172,0)=1710
Q3(172,1)=48.0561188355
Q3(173,0)=1720
Q3(173,1)=48.0561188355
Q3(174,0)=1730
Q3(174,1)=48.0561188355
Q3(175,0)=1740
Q3(175,1)=48.0561188355
Q3(176,0)=1750
Q3(176,1)=48.0561188355
Q3(177,0)=1760
Q3(177,1)=48.0561188355
Q3(178,0)=1770
Q3(178,1)=48.0561188355
Q3(179,0)=1780
Q3(179,1)=48.0561188355
Q3(180,0)=1790
Q3(180,1)=48.0561188355
Q3(181,0)=1800
Q3(181,1)=48.0561188355
Q3(182,0)=1810
Q3(182,1)=48.0561188355
Q3(183,0)=1820
Q3(183,1)=48.0561188355
Q3(184,0)=1830
Q3(184,1)=48.0561188355
Q3(185,0)=1840
Q3(185,1)=48.0561188355
Q3(186,0)=1850
Q3(186,1)=48.0561188355
Q3(187,0)=1860
Q3(187,1)=48.0561188355
Q3(188,0)=1870
Q3(188,1)=48.0561188355
Q3(189,0)=1880
Q3(189,1)=48.0561188355
Q3(190,0)=1890
Q3(190,1)=48.0561188355
Q3(191,0)=1900
Q3(191,1)=48.0561188355
Q3(192,0)=1910
Q3(192,1)=48.0561188355
Q3(193,0)=1920
Q3(193,1)=48.0561188355
Q3(194,0)=1930
Q3(194,1)=48.0561188355
Q3(195,0)=1940
Q3(195,1)=48.0561188355
Q3(196,0)=1950
Q3(196,1)=48.0561188355
Q3(197,0)=1960
Q3(197,1)=48.0561188355
Q3(198,0)=1970
Q3(198,1)=48.0561188355
Q3(199,0)=1980
Q3(199,1)=48.0561188355
Q3(200,0)=1990
Q3(200,1)=48.0561188355
Q3(201,0)=2000
Q3(201,1)=48.0561188355
Q3(202,0)=2010
Q3(202,1)=48.0561188355
Q3(203,0)=2020
Q3(203,1)=48.0561188355
Q3(204,0)=2030
Q3(204,1)=48.0561188355
Q3(205,0)=2040
Q3(205,1)=48.0561188355
Q3(206,0)=2050
Q3(206,1)=48.0561188355
Q3(207,0)=2060
Q3(207,1)=48.0561188355
Q3(208,0)=2070
Q3(208,1)=48.0561188355
Q3(209,0)=2080
Q3(209,1)=48.0561188355
Q3(210,0)=2090
Q3(210,1)=48.0561188355
Q3(211,0)=2100
Q3(211,1)=48.0561188355
Q3(212,0)=2110
Q3(212,1)=48.0561188355
Q3(213,0)=2120
Q3(213,1)=48.0561188355
Q3(214,0)=2130
Q3(214,1)=48.0561188355
Q3(215,0)=2140
Q3(215,1)=48.0561188355
Q3(216,0)=2150
Q3(216,1)=48.0561188355
Q3(217,0)=2160
Q3(217,1)=48.0561188355
Q3(218,0)=2170
Q3(218,1)=48.0561188355
Q3(219,0)=2180
Q3(219,1)=48.0561188355
Q3(220,0)=2190
Q3(220,1)=48.0561188355
Q3(221,0)=2200
Q3(221,1)=48.0561188355
Q3(222,0)=2210
Q3(222,1)=48.0561188355
Q3(223,0)=2220
Q3(223,1)=48.0561188355
Q3(224,0)=2230
Q3(224,1)=48.0561188355
Q3(225,0)=2240
Q3(225,1)=48.0561188355
Q3(226,0)=2250
Q3(226,1)=48.0561188355
Q3(227,0)=2260
Q3(227,1)=48.0561188355
Q3(228,0)=2270
Q3(228,1)=48.0561188355
Q3(229,0)=2280
Q3(229,1)=48.0561188355
Q3(230,0)=2290
Q3(230,1)=48.0561188355
Q3(231,0)=2300
Q3(231,1)=48.0561188355
Q3(232,0)=2310
Q3(232,1)=48.0561188355
Q3(233,0)=2320
Q3(233,1)=48.0561188355
Q3(234,0)=2330
Q3(234,1)=48.0561188355
Q3(235,0)=2340
Q3(235,1)=48.0561188355
Q3(236,0)=2350
Q3(236,1)=48.0561188355
Q3(237,0)=2360
Q3(237,1)=48.0561188355
Q3(238,0)=2370
Q3(238,1)=48.0561188355
Q3(239,0)=2380
Q3(239,1)=48.0561188355
Q3(240,0)=2390
Q3(240,1)=48.0561188355
Q3(241,0)=2400
Q3(241,1)=48.0561188355
Q3(242,0)=2410
Q3(242,1)=48.0561188355
Q3(243,0)=2420
Q3(243,1)=48.0561188355
Q3(244,0)=2430
Q3(244,1)=48.0561188355
Q3(245,0)=2440
Q3(245,1)=48.0561188355
Q3(246,0)=2450
Q3(246,1)=48.0561188355
Q3(247,0)=2460
Q3(247,1)=48.0561188355
Q3(248,0)=2470
Q3(248,1)=48.0561188355
Q3(249,0)=2480
Q3(249,1)=48.0561188355
Q3(250,0)=2490
Q3(250,1)=48.0561188355
Q3(251,0)=2500
Q3(251,1)=48.0561188355
Q3(252,0)=2510
Q3(252,1)=48.0561188355
Q3(253,0)=2520
Q3(253,1)=48.0561188355
Q3(254,0)=2530
Q3(254,1)=48.0561188355
Q3(255,0)=2540
Q3(255,1)=48.0561188355
Q3(256,0)=2550
Q3(256,1)=48.0561188355
Q3(257,0)=2560
Q3(257,1)=48.0561188355
Q3(258,0)=2570
Q3(258,1)=48.0561188355
Q3(259,0)=2580
Q3(259,1)=48.0561188355
Q3(260,0)=2590
Q3(260,1)=48.0561188355
Q3(261,0)=2600
Q3(261,1)=48.0561188355
Q3(262,0)=2610
Q3(262,1)=48.0561188355
Q3(263,0)=2620
Q3(263,1)=48.0561188355
Q3(264,0)=2630
Q3(264,1)=48.0561188355
Q3(265,0)=2640
Q3(265,1)=48.0561188355
Q3(266,0)=2650
Q3(266,1)=48.0561188355
Q3(267,0)=2660
Q3(267,1)=48.0561188355
Q3(268,0)=2670
Q3(268,1)=48.0561188355
Q3(269,0)=2680
Q3(269,1)=48.0561188355
Q3(270,0)=2690
Q3(270,1)=48.0561188355
Q3(271,0)=2700
Q3(271,1)=48.0561188355
Q3(272,0)=2710
Q3(272,1)=48.0561188355
Q3(273,0)=2720
Q3(273,1)=48.0561188355
Q3(274,0)=2730
Q3(274,1)=48.0561188355
Q3(275,0)=2740
Q3(275,1)=48.0561188355
Q3(276,0)=2750
Q3(276,1)=48.0561188355
Q3(277,0)=2760
Q3(277,1)=48.0561188355
Q3(278,0)=2770
Q3(278,1)=48.0561188355
Q3(279,0)=2780
Q3(279,1)=48.0561188355
Q3(280,0)=2790
Q3(280,1)=48.0561188355
Q3(281,0)=2800
Q3(281,1)=48.0561188355
Q3(282,0)=2810
Q3(282,1)=48.0561188355
Q3(283,0)=2820
Q3(283,1)=48.0561188355
Q3(284,0)=2830
Q3(284,1)=48.0561188355
Q3(285,0)=2840
Q3(285,1)=48.0561188355
Q3(286,0)=2850
Q3(286,1)=48.0561188355
Q3(287,0)=2860
Q3(287,1)=48.0561188355
Q3(288,0)=2870
Q3(288,1)=48.0561188355
Q3(289,0)=2880
Q3(289,1)=48.0561188355
Q3(290,0)=2890
Q3(290,1)=48.0561188355
Q3(291,0)=2900
Q3(291,1)=48.0561188355
Q3(292,0)=2910
Q3(292,1)=48.0561188355
Q3(293,0)=2920
Q3(293,1)=48.0561188355
Q3(294,0)=2930
Q3(294,1)=48.0561188355
Q3(295,0)=2940
Q3(295,1)=48.0561188355
Q3(296,0)=2950
Q3(296,1)=48.0561188355
Q3(297,0)=2960
Q3(297,1)=48.0561188355
Q3(298,0)=2970
Q3(298,1)=48.0561188355
Q3(299,0)=2980
Q3(299,1)=48.0561188355
Q3(300,0)=2990
Q3(300,1)=48.0561188355
Q3(301,0)=3000
Q3(301,1)=48.0561188355
Q3(302,0)=3010
Q3(302,1)=48.0561188355
Q3(303,0)=3020
Q3(303,1)=48.0561188355
Q3(304,0)=3030
Q3(304,1)=48.0561188355
Q3(305,0)=3040
Q3(305,1)=48.0561188355
Q3(306,0)=3050
Q3(306,1)=48.0561188355
Q3(307,0)=3060
Q3(307,1)=48.0561188355
Q3(308,0)=3070
Q3(308,1)=48.0561188355
Q3(309,0)=3080
Q3(309,1)=48.0561188355
Q3(310,0)=3090
Q3(310,1)=48.0561188355
Q3(311,0)=3100
Q3(311,1)=48.0561188355
Q3(312,0)=3110
Q3(312,1)=48.0561188355
Q3(313,0)=3120
Q3(313,1)=48.0561188355
Q3(314,0)=3130
Q3(314,1)=48.0561188355
Q3(315,0)=3140
Q3(315,1)=48.0561188355
Q3(316,0)=3150
Q3(316,1)=48.0561188355
Q3(317,0)=3160
Q3(317,1)=48.0561188355
Q3(318,0)=3170
Q3(318,1)=48.0561188355
Q3(319,0)=3180
Q3(319,1)=48.0561188355
Q3(320,0)=3190
Q3(320,1)=48.0561188355
Q3(321,0)=3200
Q3(321,1)=48.0561188355
Q3(322,0)=3210
Q3(322,1)=48.0561188355
Q3(323,0)=3220
Q3(323,1)=48.0561188355
Q3(324,0)=3230
Q3(324,1)=48.0561188355
Q3(325,0)=3240
Q3(325,1)=48.0561188355
Q3(326,0)=3250
Q3(326,1)=48.0561188355
Q3(327,0)=3260
Q3(327,1)=48.0561188355
Q3(328,0)=3270
Q3(328,1)=48.0561188355
Q3(329,0)=3280
Q3(329,1)=48.0561188355
Q3(330,0)=3290
Q3(330,1)=48.0561188355
Q3(331,0)=3300
Q3(331,1)=48.0561188355
Q3(332,0)=3310
Q3(332,1)=48.0561188355
Q3(333,0)=3320
Q3(333,1)=48.0561188355
Q3(334,0)=3330
Q3(334,1)=48.0561188355
Q3(335,0)=3340
Q3(335,1)=48.0561188355
Q3(336,0)=3350
Q3(336,1)=48.0561188355
Q3(337,0)=3360
Q3(337,1)=48.0561188355
Q3(338,0)=3370
Q3(338,1)=48.0561188355
Q3(339,0)=3380
Q3(339,1)=48.0561188355
Q3(340,0)=3390
Q3(340,1)=48.0561188355
Q3(341,0)=3400
Q3(341,1)=48.0561188355
Q3(342,0)=3410
Q3(342,1)=48.0561188355
Q3(343,0)=3420
Q3(343,1)=48.0561188355
Q3(344,0)=3430
Q3(344,1)=48.0561188355
Q3(345,0)=3440
Q3(345,1)=48.0561188355
Q3(346,0)=3450
Q3(346,1)=48.0561188355
Q3(347,0)=3460
Q3(347,1)=48.0561188355
Q3(348,0)=3470
Q3(348,1)=48.0561188355
Q3(349,0)=3480
Q3(349,1)=48.0561188355
Q3(350,0)=3490
Q3(350,1)=48.0561188355
Q3(351,0)=3500
Q3(351,1)=48.0561188355
Q3(352,0)=3510
Q3(352,1)=48.0561188355
Q3(353,0)=3520
Q3(353,1)=48.0561188355
Q3(354,0)=3530
Q3(354,1)=48.0561188355
Q3(355,0)=3540
Q3(355,1)=48.0561188355
Q3(356,0)=3550
Q3(356,1)=48.0561188355
Q3(357,0)=3560
Q3(357,1)=48.0561188355
Q3(358,0)=3570
Q3(358,1)=48.0561188355
Q3(359,0)=3580
Q3(359,1)=48.0561188355
Q3(360,0)=3590
Q3(360,1)=48.0561188355
Q3(361,0)=3600
Q3(361,1)=48.0561188355
Q3(362,0)=3610
Q3(362,1)=48.0561188355
Q3(363,0)=3620
Q3(363,1)=48.0561188355
Q3(364,0)=3630
Q3(364,1)=48.0561188355
Q3(365,0)=3640
Q3(365,1)=48.0561188355
Q3(366,0)=3650
Q3(366,1)=48.0561188355
Q3(367,0)=3660
Q3(367,1)=48.0561188355
Q3(368,0)=3670
Q3(368,1)=48.0561188355
Q3(369,0)=3680
Q3(369,1)=48.0561188355
Q3(370,0)=3690
Q3(370,1)=48.0561188355
Q3(371,0)=3700
Q3(371,1)=48.0561188355
Q3(372,0)=3710
Q3(372,1)=48.0561188355
Q3(373,0)=3720
Q3(373,1)=48.0561188355
Q3(374,0)=3730
Q3(374,1)=48.0561188355
Q3(375,0)=3740
Q3(375,1)=48.0561188355
Q3(376,0)=3750
Q3(376,1)=48.0561188355
Q3(377,0)=3760
Q3(377,1)=48.0561188355
Q3(378,0)=3770
Q3(378,1)=48.0561188355
Q3(379,0)=3780
Q3(379,1)=48.0561188355
Q3(380,0)=3790
Q3(380,1)=48.0561188355
Q3(381,0)=3800
Q3(381,1)=48.0561188355
Q3(382,0)=3810
Q3(382,1)=48.0561188355
Q3(383,0)=3820
Q3(383,1)=48.0561188355
Q3(384,0)=3830
Q3(384,1)=48.0561188355
Q3(385,0)=3840
Q3(385,1)=48.0561188355
Q3(386,0)=3850
Q3(386,1)=48.0561188355
Q3(387,0)=3860
Q3(387,1)=48.0561188355
Q3(388,0)=3870
Q3(388,1)=48.0561188355
Q3(389,0)=3880
Q3(389,1)=1036.28906513
Q3(390,0)=3890
Q3(390,1)=1040.30713995
Q3(391,0)=3900
Q3(391,1)=1044.19940676
Q3(392,0)=3910
Q3(392,1)=1047.96537205
Q3(393,0)=3920
Q3(393,1)=1051.60455834
Q3(394,0)=3930
Q3(394,1)=1055.11650421
Q3(395,0)=3940
Q3(395,1)=1058.50076438
Q3(396,0)=3950
Q3(396,1)=1061.75690976
Q3(397,0)=3960
Q3(397,1)=1064.88452749
Q3(398,0)=3970
Q3(398,1)=1067.88322103
Q3(399,0)=3980
Q3(399,1)=1070.75261018
Q3(400,0)=3990
Q3(400,1)=1073.49233111
Q3(401,0)=4000
Q3(401,1)=1076.10203647
Q3(402,0)=4010
Q3(402,1)=1078.58139535
Q3(403,0)=4020
Q3(403,1)=1080.93009341
Q3(404,0)=4030
Q3(404,1)=1083.14783286
Q3(405,0)=4040
Q3(405,1)=1085.23433249
Q3(406,0)=4050
Q3(406,1)=1087.18932777
Q3(407,0)=4060
Q3(407,1)=1089.01257082
Q3(408,0)=4070
Q3(408,1)=1090.70383048
Q3(409,0)=4080
Q3(409,1)=1092.26289229
Q3(410,0)=4090
Q3(410,1)=1093.6895586
Q3(411,0)=4100
Q3(411,1)=1094.98364851
Q3(412,0)=4110
Q3(412,1)=1096.14499794
Q3(413,0)=4120
Q3(413,1)=1097.17345965
Q3(414,0)=4130
Q3(414,1)=1098.06890323
Q3(415,0)=4140
Q3(415,1)=1098.83121516
Q3(416,0)=4150
Q3(416,1)=1099.46029878
Q3(417,0)=4160
Q3(417,1)=1099.95607432
Q3(418,0)=4170
Q3(418,1)=1100.31847894
Q3(419,0)=4180
Q3(419,1)=1100.54746667
Q3(420,0)=4190
Q3(420,1)=1100.64300848
Q3(421,0)=4200
Q3(421,1)=1101.39025932
Q3(422,0)=4210
Q3(422,1)=1102.22014862
Q3(423,0)=4220
Q3(423,1)=1102.91637993
Q3(424,0)=4230
Q3(424,1)=1103.47886497
Q3(425,0)=4240
Q3(425,1)=1103.90753242
Q3(426,0)=4250
Q3(426,1)=1104.20232793
Q3(427,0)=4260
Q3(427,1)=1104.36321412
Q3(428,0)=4270
Q3(428,1)=1104.3901706
Q3(429,0)=4280
Q3(429,1)=1104.28319394
Q3(430,0)=4290
Q3(430,1)=1104.04229771
Q3(431,0)=4300
Q3(431,1)=1103.66751246
Q3(432,0)=4310
Q3(432,1)=1103.1588857
Q3(433,0)=4320
Q3(433,1)=1102.51648192
Q3(434,0)=4330
Q3(434,1)=1101.74038257
Q3(435,0)=4340
Q3(435,1)=1100.83068606
Q3(436,0)=4350
Q3(436,1)=1099.78750772
Q3(437,0)=4360
Q3(437,1)=1098.61097983
Q3(438,0)=4370
Q3(438,1)=1097.30125154
Q3(439,0)=4380
Q3(439,1)=1095.85848893
Q3(440,0)=4390
Q3(440,1)=1094.28287493
Q3(441,0)=4400
Q3(441,1)=1092.5746093
Q3(442,0)=4410
Q3(442,1)=1090.73390863
Q3(443,0)=4420
Q3(443,1)=1088.76100632
Q3(444,0)=4430
Q3(444,1)=1086.6561525
Q3(445,0)=4440
Q3(445,1)=1084.41961406
Q3(446,0)=4450
Q3(446,1)=1082.05167456
Q3(447,0)=4460
Q3(447,1)=1079.55263423
Q3(448,0)=4470
Q3(448,1)=1076.92280994
Q3(449,0)=4480
Q3(449,1)=1074.16253511
Q3(450,0)=4490
Q3(450,1)=1071.27215972
Q3(451,0)=4500
Q3(451,1)=1068.25205025
Q3(452,0)=4510
Q3(452,1)=1065.10258962
Q3(453,0)=4520
Q3(453,1)=1061.82417715
Q3(454,0)=4530
Q3(454,1)=1058.41722851
Q3(455,0)=4540
Q3(455,1)=1054.88217567
Q3(456,0)=4550
Q3(456,1)=1051.21946683
Q3(457,0)=4560
Q3(457,1)=1047.42956641
Q3(458,0)=4570
Q3(458,1)=1043.51295491
Q3(459,0)=4580
Q3(459,1)=1039.47012894
Q3(460,0)=4590
Q3(460,1)=1035.30160107
Q3(461,0)=4600
Q3(461,1)=1031.00789985
Q3(462,0)=4610
Q3(462,1)=1026.58956967
Q3(463,0)=4620
Q3(463,1)=1022.04717074
Q3(464,0)=4630
Q3(464,1)=1017.38127898
Q3(465,0)=4640
Q3(465,1)=1012.59248599
Q3(466,0)=4650
Q3(466,1)=1007.68139894
Q3(467,0)=4660
Q3(467,1)=1002.64864051
Q3(468,0)=4670
Q3(468,1)=997.494848812
Q3(469,0)=4680
Q3(469,1)=992.22067729
Q3(470,0)=4690
Q3(470,1)=986.826794662
Q3(471,0)=4700
Q3(471,1)=981.313884821
Q3(472,0)=4710
Q3(472,1)=975.682646751
Q3(473,0)=4720
Q3(473,1)=969.933794441
Q3(474,0)=4730
Q3(474,1)=964.06805679
Q3(475,0)=4740
Q3(475,1)=958.086177517
Q3(476,0)=4750
Q3(476,1)=951.988915069
Q3(477,0)=4760
Q3(477,1)=945.77704252
Q3(478,0)=4770
Q3(478,1)=939.451347477
Q3(479,0)=4780
Q3(479,1)=933.012631978
Q3(480,0)=4790
Q3(480,1)=926.461712391
Q3(481,0)=4800
Q3(481,1)=919.799419311
Q3(482,0)=4810
Q3(482,1)=913.026597452
Q3(483,0)=4820
Q3(483,1)=906.144105545
Q3(484,0)=4830
Q3(484,1)=899.152816225
Q3(485,0)=4840
Q3(485,1)=892.053615919
Q3(486,0)=4850
Q3(486,1)=884.847404741
Q3(487,0)=4860
Q3(487,1)=877.535096368
Q3(488,0)=4870
Q3(488,1)=870.117617932
Q3(489,0)=4880
Q3(489,1)=862.595909899
Q3(490,0)=4890
Q3(490,1)=854.97092595
Q3(491,0)=4900
Q3(491,1)=847.243632861
Q3(492,0)=4910
Q3(492,1)=839.415010379
Q3(493,0)=4920
Q3(493,1)=831.4860511
Q3(494,0)=4930
Q3(494,1)=823.457760339
Q3(495,0)=4940
Q3(495,1)=815.331156009
Q3(496,0)=4950
Q3(496,1)=807.107268484
Q3(497,0)=4960
Q3(497,1)=798.787140478
Q3(498,0)=4970
Q3(498,1)=790.371826902
Q3(499,0)=4980
Q3(499,1)=781.862394738
Q3(500,0)=4990
Q3(500,1)=773.259922902
Q3(501,0)=5000
Q3(501,1)=764.565502106
Q3(502,0)=5010
Q3(502,1)=755.780234719
Q3(503,0)=5020
Q3(503,1)=746.905234631
Q3(504,0)=5030
Q3(504,1)=737.941627106
Q3(505,0)=5040
Q3(505,1)=728.890548646
Q3(506,0)=5050
Q3(506,1)=719.75314684
Q3(507,0)=5060
Q3(507,1)=710.530580226
Q3(508,0)=5070
Q3(508,1)=701.224018137
Q3(509,0)=5080
Q3(509,1)=691.834640556
Q3(510,0)=5090
Q3(510,1)=682.363637968
Q3(511,0)=5100
Q3(511,1)=672.812211206
Q3(512,0)=5110
Q3(512,1)=663.1815713
Q3(513,0)=5120
Q3(513,1)=653.472939324
Q3(514,0)=5130
Q3(514,1)=643.687546241
Q3(515,0)=5140
Q3(515,1)=633.826632744
Q3(516,0)=5150
Q3(516,1)=623.891449105
Q3(517,0)=5160
Q3(517,1)=613.883255011
Q3(518,0)=5170
Q3(518,1)=603.803319406
Q3(519,0)=5180
Q3(519,1)=593.652920329
Q3(520,0)=5190
Q3(520,1)=583.433344755
Q3(521,0)=5200
Q3(521,1)=573.14588843
Q3(522,0)=5210
Q3(522,1)=562.791855704
Q3(523,0)=5220
Q3(523,1)=552.372559372
Q3(524,0)=5230
Q3(524,1)=541.889320501
Q3(525,0)=5240
Q3(525,1)=531.343468267
Q3(526,0)=5250
Q3(526,1)=520.736339782
Q3(527,0)=5260
Q3(527,1)=510.069279931
Q3(528,0)=5270
Q3(528,1)=499.343641196
Q3(529,0)=5280
Q3(529,1)=488.560783485
Q3(530,0)=5290
Q3(530,1)=477.722073963
Q3(531,0)=5300
Q3(531,1)=466.828886876
Q3(532,0)=5310
Q3(532,1)=455.882603375
Q3(533,0)=5320
Q3(533,1)=444.884611346
Q3(534,0)=5330
Q3(534,1)=433.83630523
Q3(535,0)=5340
Q3(535,1)=422.739085848
Q3(536,0)=5350
Q3(536,1)=411.59436022
Q3(537,0)=5360
Q3(537,1)=400.403541394
Q3(538,0)=5370
Q3(538,1)=389.168048258
Q3(539,0)=5380
Q3(539,1)=377.889305366
Q3(540,0)=5390
Q3(540,1)=366.568742757
Q3(541,0)=5400
Q3(541,1)=355.207795769
Q3(542,0)=5410
Q3(542,1)=343.807904863
Q3(543,0)=5420
Q3(543,1)=332.370515438
Q3(544,0)=5430
Q3(544,1)=320.897077645
Q3(545,0)=5440
Q3(545,1)=309.389046207
Q3(546,0)=5450
Q3(546,1)=297.847880234
Q3(547,0)=5460
Q3(547,1)=286.275043037
Q3(548,0)=5470
Q3(548,1)=274.67200194
Q3(549,0)=5480
Q3(549,1)=263.0402281
Q3(550,0)=5490
Q3(550,1)=251.381196315
Q3(551,0)=5500
Q3(551,1)=239.696384839
Q3(552,0)=5510
Q3(552,1)=227.987275197
Q3(553,0)=5520
Q3(553,1)=216.255351991
Q3(554,0)=5530
Q3(554,1)=204.502102719
Q3(555,0)=5540
Q3(555,1)=192.72901758
Q3(556,0)=5550
Q3(556,1)=180.937589291
Q3(557,0)=5560
Q3(557,1)=169.129312893
Q3(558,0)=5570
Q3(558,1)=157.305685562
Q3(559,0)=5580
Q3(559,1)=145.468206423
Q3(560,0)=5590
Q3(560,1)=136.985674549
Q3(561,0)=5600
Q3(561,1)=136.976833466
Q3(562,0)=5610
Q3(562,1)=136.956718081
Q3(563,0)=5620
Q3(563,1)=136.925330943
Q3(564,0)=5630
Q3(564,1)=136.882676033
Q3(565,0)=5640
Q3(565,1)=136.828758758
Q3(566,0)=5650
Q3(566,1)=136.763585955
Q3(567,0)=5660
Q3(567,1)=136.687165887
Q3(568,0)=5670
Q3(568,1)=136.599508243
Q3(569,0)=5680
Q3(569,1)=136.500624138
Q3(570,0)=5690
Q3(570,1)=136.390526108
Q3(571,0)=5700
Q3(571,1)=136.269228114
Q3(572,0)=5710
Q3(572,1)=136.136745535
Q3(573,0)=5720
Q3(573,1)=135.993095169
Q3(574,0)=5730
Q3(574,1)=135.838295228
Q3(575,0)=5740
Q3(575,1)=135.67236534
Q3(576,0)=5750
Q3(576,1)=135.495326543
Q3(577,0)=5760
Q3(577,1)=135.307201285
Q3(578,0)=5770
Q3(578,1)=135.108013418
Q3(579,0)=5780
Q3(579,1)=134.897788196
Q3(580,0)=5790
Q3(580,1)=134.676552275
Q3(581,0)=5800
Q3(581,1)=134.444333705
Q3(582,0)=5810
Q3(582,1)=134.201161929
Q3(583,0)=5820
Q3(583,1)=133.947067779
Q3(584,0)=5830
Q3(584,1)=133.682083472
Q3(585,0)=5840
Q3(585,1)=133.406242605
Q3(586,0)=5850
Q3(586,1)=133.119580152
Q3(587,0)=5860
Q3(587,1)=132.82213246
Q3(588,0)=5870
Q3(588,1)=132.513937241
Q3(589,0)=5880
Q3(589,1)=132.195033573
Q3(590,0)=5890
Q3(590,1)=131.865461888
Q3(591,0)=5900
Q3(591,1)=131.525263974
Q3(592,0)=5910
Q3(592,1)=131.174482965
Q3(593,0)=5920
Q3(593,1)=130.813163336
Q3(594,0)=5930
Q3(594,1)=130.441350899
Q3(595,0)=5940
Q3(595,1)=130.059092796
Q3(596,0)=5950
Q3(596,1)=129.666437495
Q3(597,0)=5960
Q3(597,1)=129.263434779
Q3(598,0)=5970
Q3(598,1)=128.850135747
Q3(599,0)=5980
Q3(599,1)=128.4265928
Q3(600,0)=5990
Q3(600,1)=127.992859639
Q3(601,0)=6000
Q3(601,1)=127.548991258
Q3(602,0)=6010
Q3(602,1)=127.095043936
Q3(603,0)=6020
Q3(603,1)=126.631075227
Q3(604,0)=6030
Q3(604,1)=126.15714396
Q3(605,0)=6040
Q3(605,1)=125.673310224
Q3(606,0)=6050
Q3(606,1)=125.179635365
Q3(607,0)=6060
Q3(607,1)=124.676181976
Q3(608,0)=6070
Q3(608,1)=124.163013889
Q3(609,0)=6080
Q3(609,1)=123.640196171
Q3(610,0)=6090
Q3(610,1)=123.107795109
Q3(611,0)=6100
Q3(611,1)=122.565878207
Q3(612,0)=6110
Q3(612,1)=122.014514174
Q3(613,0)=6120
Q3(613,1)=121.453772919
Q3(614,0)=6130
Q3(614,1)=120.883725537
Q3(615,0)=6140
Q3(615,1)=120.304444306
Q3(616,0)=6150
Q3(616,1)=119.716002673
Q3(617,0)=6160
Q3(617,1)=119.118475247
Q3(618,0)=6170
Q3(618,1)=118.511937788
Q3(619,0)=6180
Q3(619,1)=117.8964672
Q3(620,0)=6190
Q3(620,1)=117.272141519
Q3(621,0)=6200
Q3(621,1)=116.639039903
Q3(622,0)=6210
Q3(622,1)=115.997242623
Q3(623,0)=6220
Q3(623,1)=115.346831054
Q3(624,0)=6230
Q3(624,1)=114.68788766
Q3(625,0)=6240
Q3(625,1)=114.020495991
Q3(626,0)=6250
Q3(626,1)=113.344740665
Q3(627,0)=6260
Q3(627,1)=112.660707361
Q3(628,0)=6270
Q3(628,1)=111.968482808
Q3(629,0)=6280
Q3(629,1)=111.268154774
Q3(630,0)=6290
Q3(630,1)=110.559812054
Q3(631,0)=6300
Q3(631,1)=109.843544459
Q3(632,0)=6310
Q3(632,1)=109.119442804
Q3(633,0)=6320
Q3(633,1)=108.387598899
Q3(634,0)=6330
Q3(634,1)=107.648105536
Q3(635,0)=6340
Q3(635,1)=106.901056473
Q3(636,0)=6350
Q3(636,1)=106.146546431
Q3(637,0)=6360
Q3(637,1)=105.384671075
Q3(638,0)=6370
Q3(638,1)=104.615527001
Q3(639,0)=6380
Q3(639,1)=103.839211732
Q3(640,0)=6390
Q3(640,1)=103.055823696
Q3(641,0)=6400
Q3(641,1)=102.265462219
Q3(642,0)=6410
Q3(642,1)=101.468227511
Q3(643,0)=6420
Q3(643,1)=100.664220656
Q3(644,0)=6430
Q3(644,1)=99.8535435916
Q3(645,0)=6440
Q3(645,1)=99.0362991058
Q3(646,0)=6450
Q3(646,1)=98.212590817
Q3(647,0)=6460
Q3(647,1)=97.3825231634
Q3(648,0)=6470
Q3(648,1)=96.5462013899
Q3(649,0)=6480
Q3(649,1)=95.703731534
Q3(650,0)=6490
Q3(650,1)=94.8552204131
Q3(651,0)=6500
Q3(651,1)=94.0007756101
Q3(652,0)=6510
Q3(652,1)=93.1405054607
Q3(653,0)=6520
Q3(653,1)=92.2745190388
Q3(654,0)=6530
Q3(654,1)=91.4029261435
Q3(655,0)=6540
Q3(655,1)=90.5258372843
Q3(656,0)=6550
Q3(656,1)=89.6433636678
Q3(657,0)=6560
Q3(657,1)=88.7556171834
Q3(658,0)=6570
Q3(658,1)=87.8627103888
Q3(659,0)=6580
Q3(659,1)=86.9647564961
Q3(660,0)=6590
Q3(660,1)=86.0618693574
Q3(661,0)=6600
Q3(661,1)=85.1541634501
Q3(662,0)=6610
Q3(662,1)=84.2417538629
Q3(663,0)=6620
Q3(663,1)=83.3247562805
Q3(664,0)=6630
Q3(664,1)=82.4032869696
Q3(665,0)=6640
Q3(665,1)=81.4774627638
Q3(666,0)=6650
Q3(666,1)=80.5474010486
Q3(667,0)=6660
Q3(667,1)=79.6132197472
Q3(668,0)=6670
Q3(668,1)=78.6750373049
Q3(669,0)=6680
Q3(669,1)=77.7329726743
Q3(670,0)=6690
Q3(670,1)=76.7871453002
Q3(671,0)=6700
Q3(671,1)=75.8376751046
Q3(672,0)=6710
Q3(672,1)=74.8846824713
Q3(673,0)=6720
Q3(673,1)=73.9282882308
Q3(674,0)=6730
Q3(674,1)=72.9686136446
Q3(675,0)=6740
Q3(675,1)=72.0057803906
Q3(676,0)=6750
Q3(676,1)=71.0399105467
Q3(677,0)=6760
Q3(677,1)=70.0711265762
Q3(678,0)=6770
Q3(678,1)=69.0995513116
Q3(679,0)=6780
Q3(679,1)=68.1253079394
Q3(680,0)=6790
Q3(680,1)=67.1485199845
Q3(681,0)=6800
Q3(681,1)=66.1693112944
Q3(682,0)=6810
Q3(682,1)=65.1878060233
Q3(683,0)=6820
Q3(683,1)=64.2041286168
Q3(684,0)=6830
Q3(684,1)=63.218403796
Q3(685,0)=6840
Q3(685,1)=62.2307565413
Q3(686,0)=6850
Q3(686,1)=61.241312077
Q3(687,0)=6860
Q3(687,1)=60.2501958554
Q3(688,0)=6870
Q3(688,1)=59.2575335405
Q3(689,0)=6880
Q3(689,1)=58.2634509925
Q3(690,0)=6890
Q3(690,1)=57.2680742517
Q3(691,0)=6900
Q3(691,1)=56.2715295223
Q3(692,0)=6910
Q3(692,1)=55.2739431569
Q3(693,0)=6920
Q3(693,1)=54.2754416398
Q3(694,0)=6930
Q3(694,1)=53.2761515716
Q3(695,0)=6940
Q3(695,1)=52.2761996527
Q3(696,0)=6950
Q3(696,1)=51.2757126677
Q3(697,0)=6960
Q3(697,1)=50.2748174687
Q3(698,0)=6970
Q3(698,1)=49.2736409598
Q3(699,0)=6980
Q3(699,1)=48.2723100807
Q3(700,0)=6990
Q3(700,1)=48.0561188355
Q3(701,0)=7000
Q3(701,1)=48.0561188355
Q3(702,0)=7010
Q3(702,1)=48.0561188355
Q3(703,0)=7020
Q3(703,1)=48.0561188355
Q3(704,0)=7030
Q3(704,1)=48.0561188355
Q3(705,0)=7040
Q3(705,1)=48.0561188355
Q3(706,0)=7050
Q3(706,1)=48.0561188355
Q3(707,0)=7060
Q3(707,1)=48.0561188355
Q3(708,0)=7070
Q3(708,1)=48.0561188355
Q3(709,0)=7080
Q3(709,1)=48.0561188355
Q3(710,0)=7090
Q3(710,1)=48.0561188355
Q3(711,0)=7100
Q3(711,1)=48.0561188355
Q3(712,0)=7110
Q3(712,1)=48.0561188355
Q3(713,0)=7120
Q3(713,1)=48.0561188355
Q3(714,0)=7130
Q3(714,1)=48.0561188355
Q3(715,0)=7140
Q3(715,1)=48.0561188355
Q3(716,0)=7150
Q3(716,1)=48.0561188355
Q3(717,0)=7160
Q3(717,1)=48.0561188355
Q3(718,0)=7170
Q3(718,1)=48.0561188355
Q3(719,0)=7180
Q3(719,1)=48.0561188355
Q3(720,0)=7190
Q3(720,1)=48.0561188355
Q3(721,0)=7200
Q3(721,1)=48.0561188355
Q3(722,0)=7210
Q3(722,1)=48.0561188355
Q3(723,0)=7220
Q3(723,1)=48.0561188355
Q3(724,0)=7230
Q3(724,1)=48.0561188355
Q3(725,0)=7240
Q3(725,1)=48.0561188355
Q3(726,0)=7250
Q3(726,1)=48.0561188355
Q3(727,0)=7260
Q3(727,1)=48.0561188355
Q3(728,0)=7270
Q3(728,1)=48.0561188355
Q3(729,0)=7280
Q3(729,1)=48.0561188355
Q3(730,0)=7290
Q3(730,1)=48.0561188355
Q3(731,0)=7300
Q3(731,1)=48.0561188355
Q3(732,0)=7310
Q3(732,1)=48.0561188355
Q3(733,0)=7320
Q3(733,1)=48.0561188355
Q3(734,0)=7330
Q3(734,1)=48.0561188355
Q3(735,0)=7340
Q3(735,1)=48.0561188355
Q3(736,0)=7350
Q3(736,1)=48.0561188355
Q3(737,0)=7360
Q3(737,1)=48.0561188355
Q3(738,0)=7370
Q3(738,1)=48.0561188355
Q3(739,0)=7380
Q3(739,1)=48.0561188355
Q3(740,0)=7390
Q3(740,1)=48.0561188355
Q3(741,0)=7400
Q3(741,1)=48.0561188355
Q3(742,0)=7410
Q3(742,1)=48.0561188355
Q3(743,0)=7420
Q3(743,1)=48.0561188355
Q3(744,0)=7430
Q3(744,1)=48.0561188355
Q3(745,0)=7440
Q3(745,1)=48.0561188355
Q3(746,0)=7450
Q3(746,1)=48.0561188355
Q3(747,0)=7460
Q3(747,1)=48.0561188355
Q3(748,0)=7470
Q3(748,1)=48.0561188355
Q3(749,0)=7480
Q3(749,1)=48.0561188355
Q3(750,0)=7490
Q3(750,1)=48.0561188355
Q3(751,0)=7500
Q3(751,1)=48.0561188355
Q3(752,0)=7510
Q3(752,1)=48.0561188355
Q3(753,0)=7520
Q3(753,1)=48.0561188355
Q3(754,0)=7530
Q3(754,1)=48.0561188355
Q3(755,0)=7540
Q3(755,1)=48.0561188355
Q3(756,0)=7550
Q3(756,1)=48.0561188355
Q3(757,0)=7560
Q3(757,1)=48.0561188355
Q3(758,0)=7570
Q3(758,1)=48.0561188355
Q3(759,0)=7580
Q3(759,1)=48.0561188355
Q3(760,0)=7590
Q3(760,1)=48.0561188355
Q3(761,0)=7600
Q3(761,1)=48.0561188355
Q3(762,0)=7610
Q3(762,1)=48.0561188355
Q3(763,0)=7620
Q3(763,1)=48.0561188355
Q3(764,0)=7630
Q3(764,1)=48.0561188355
Q3(765,0)=7640
Q3(765,1)=48.0561188355
Q3(766,0)=7650
Q3(766,1)=48.0561188355
Q3(767,0)=7660
Q3(767,1)=48.0561188355
Q3(768,0)=7670
Q3(768,1)=48.0561188355
Q3(769,0)=7680
Q3(769,1)=48.0561188355
Q3(770,0)=7690
Q3(770,1)=48.0561188355
Q3(771,0)=7700
Q3(771,1)=48.0561188355
Q3(772,0)=7710
Q3(772,1)=48.0561188355
Q3(773,0)=7720
Q3(773,1)=48.0561188355
Q3(774,0)=7730
Q3(774,1)=48.0561188355
Q3(775,0)=7740
Q3(775,1)=48.0561188355
Q3(776,0)=7750
Q3(776,1)=48.0561188355
Q3(777,0)=7760
Q3(777,1)=48.0561188355
Q3(778,0)=7770
Q3(778,1)=48.0561188355
Q3(779,0)=7780
Q3(779,1)=48.0561188355
Q3(780,0)=7790
Q3(780,1)=48.0561188355
Q3(781,0)=7800
Q3(781,1)=48.0561188355
Q3(782,0)=7810
Q3(782,1)=48.0561188355
Q3(783,0)=7820
Q3(783,1)=48.0561188355
Q3(784,0)=7830
Q3(784,1)=48.0561188355
Q3(785,0)=7840
Q3(785,1)=48.0561188355
Q3(786,0)=7850
Q3(786,1)=48.0561188355
Q3(787,0)=7860
Q3(787,1)=48.0561188355
Q3(788,0)=7870
Q3(788,1)=48.0561188355
Q3(789,0)=7880
Q3(789,1)=48.0561188355
Q3(790,0)=7890
Q3(790,1)=48.0561188355
Q3(791,0)=7900
Q3(791,1)=48.0561188355
Q3(792,0)=7910
Q3(792,1)=48.0561188355
Q3(793,0)=7920
Q3(793,1)=48.0561188355
Q3(794,0)=7930
Q3(794,1)=48.0561188355
Q3(795,0)=7940
Q3(795,1)=48.0561188355
Q3(796,0)=7950
Q3(796,1)=48.0561188355
Q3(797,0)=7960
Q3(797,1)=48.0561188355
Q3(798,0)=7970
Q3(798,1)=48.0561188355
Q3(799,0)=7980
Q3(799,1)=48.0561188355
Q3(800,0)=7990
Q3(800,1)=48.0561188355
Q3(801,0)=8000
Q3(801,1)=48.0561188355
Q3(802,0)=8010
Q3(802,1)=48.0561188355
Q3(803,0)=8020
Q3(803,1)=48.0561188355
Q3(804,0)=8030
Q3(804,1)=48.0561188355
Q3(805,0)=8040
Q3(805,1)=48.0561188355
Q3(806,0)=8050
Q3(806,1)=48.0561188355
Q3(807,0)=8060
Q3(807,1)=48.0561188355
Q3(808,0)=8070
Q3(808,1)=48.0561188355
Q3(809,0)=8080
Q3(809,1)=48.0561188355
Q3(810,0)=8090
Q3(810,1)=48.0561188355
Q3(811,0)=8100
Q3(811,1)=48.0561188355
Q3(812,0)=8110
Q3(812,1)=48.0561188355
Q3(813,0)=8120
Q3(813,1)=48.0561188355
Q3(814,0)=8130
Q3(814,1)=48.0561188355
Q3(815,0)=8140
Q3(815,1)=48.0561188355
Q3(816,0)=8150
Q3(816,1)=48.0561188355
Q3(817,0)=8160
Q3(817,1)=48.0561188355
Q3(818,0)=8170
Q3(818,1)=48.0561188355
Q3(819,0)=8180
Q3(819,1)=48.0561188355
Q3(820,0)=8190
Q3(820,1)=48.0561188355
Q3(821,0)=8200
Q3(821,1)=48.0561188355
Q3(822,0)=8210
Q3(822,1)=48.0561188355
Q3(823,0)=8220
Q3(823,1)=48.0561188355
Q3(824,0)=8230
Q3(824,1)=48.0561188355
Q3(825,0)=8240
Q3(825,1)=48.0561188355
Q3(826,0)=8250
Q3(826,1)=48.0561188355
Q3(827,0)=8260
Q3(827,1)=48.0561188355
Q3(828,0)=8270
Q3(828,1)=48.0561188355
Q3(829,0)=8280
Q3(829,1)=48.0561188355
Q3(830,0)=8290
Q3(830,1)=48.0561188355
Q3(831,0)=8300
Q3(831,1)=48.0561188355
Q3(832,0)=8310
Q3(832,1)=48.0561188355
Q3(833,0)=8320
Q3(833,1)=48.0561188355
Q3(834,0)=8330
Q3(834,1)=48.0561188355
Q3(835,0)=8340
Q3(835,1)=48.0561188355
Q3(836,0)=8350
Q3(836,1)=48.0561188355
Q3(837,0)=8360
Q3(837,1)=48.0561188355
Q3(838,0)=8370
Q3(838,1)=48.0561188355
Q3(839,0)=8380
Q3(839,1)=48.0561188355
Q3(840,0)=8390
Q3(840,1)=48.0561188355
Q3(841,0)=8400
Q3(841,1)=48.0561188355
Q3(842,0)=8410
Q3(842,1)=48.0561188355
Q3(843,0)=8420
Q3(843,1)=48.0561188355
Q3(844,0)=8430
Q3(844,1)=48.0561188355
Q3(845,0)=8440
Q3(845,1)=48.0561188355
Q3(846,0)=8450
Q3(846,1)=48.0561188355
Q3(847,0)=8460
Q3(847,1)=48.0561188355
Q3(848,0)=8470
Q3(848,1)=48.0561188355
Q3(849,0)=8480
Q3(849,1)=48.0561188355
Q3(850,0)=8490
Q3(850,1)=48.0561188355
Q3(851,0)=8500
Q3(851,1)=48.0561188355
Q3(852,0)=8510
Q3(852,1)=48.0561188355
Q3(853,0)=8520
Q3(853,1)=48.0561188355
Q3(854,0)=8530
Q3(854,1)=48.0561188355
Q3(855,0)=8540
Q3(855,1)=48.0561188355
Q3(856,0)=8550
Q3(856,1)=48.0561188355
Q3(857,0)=8560
Q3(857,1)=48.0561188355
Q3(858,0)=8570
Q3(858,1)=48.0561188355
Q3(859,0)=8580
Q3(859,1)=48.0561188355
Q3(860,0)=8590
Q3(860,1)=48.0561188355
Q3(861,0)=8600
Q3(861,1)=48.0561188355
Q3(862,0)=8610
Q3(862,1)=48.0561188355
Q3(863,0)=8620
Q3(863,1)=48.0561188355
Q3(864,0)=8630
Q3(864,1)=48.0561188355
Q3(865,0)=8640
Q3(865,1)=48.0561188355
Q3(866,0)=8650
Q3(866,1)=48.0561188355
Q3(867,0)=8660
Q3(867,1)=48.0561188355
Q3(868,0)=8670
Q3(868,1)=48.0561188355
Q3(869,0)=8680
Q3(869,1)=48.0561188355
Q3(870,0)=8690
Q3(870,1)=48.0561188355
Q3(871,0)=8700
Q3(871,1)=48.0561188355
Q3(872,0)=8710
Q3(872,1)=48.0561188355
Q3(873,0)=8720
Q3(873,1)=48.0561188355
Q3(874,0)=8730
Q3(874,1)=48.0561188355
Q3(875,0)=8740
Q3(875,1)=48.0561188355
Q3(876,0)=8750
Q3(876,1)=48.0561188355
Q3(877,0)=8760
Q3(877,1)=48.0561188355
Q3(878,0)=8770
Q3(878,1)=48.0561188355
Q3(879,0)=8780
Q3(879,1)=48.0561188355
Q3(880,0)=8790
Q3(880,1)=48.0561188355
Q3(881,0)=8800
Q3(881,1)=48.0561188355
Q3(882,0)=8810
Q3(882,1)=48.0561188355
Q3(883,0)=8820
Q3(883,1)=48.0561188355
Q3(884,0)=8830
Q3(884,1)=48.0561188355
Q3(885,0)=8840
Q3(885,1)=48.0561188355
Q3(886,0)=8850
Q3(886,1)=48.0561188355
Q3(887,0)=8860
Q3(887,1)=48.0561188355
Q3(888,0)=8870
Q3(888,1)=48.0561188355
Q3(889,0)=8880
Q3(889,1)=48.0561188355
Q3(890,0)=8890
Q3(890,1)=48.0561188355
Q3(891,0)=8900
Q3(891,1)=48.0561188355
Q3(892,0)=8910
Q3(892,1)=48.0561188355
Q3(893,0)=8920
Q3(893,1)=48.0561188355
Q3(894,0)=8930
Q3(894,1)=48.0561188355
Q3(895,0)=8940
Q3(895,1)=48.0561188355
Q3(896,0)=8950
Q3(896,1)=48.0561188355
Q3(897,0)=8960
Q3(897,1)=48.0561188355
Q3(898,0)=8970
Q3(898,1)=48.0561188355
Q3(899,0)=8980
Q3(899,1)=48.0561188355
Q3(900,0)=8990
Q3(900,1)=48.0561188355
Q3(901,0)=9000
Q3(901,1)=48.0561188355
Q3(902,0)=9010
Q3(902,1)=48.0561188355
Q3(903,0)=9020
Q3(903,1)=48.0561188355
Q3(904,0)=9030
Q3(904,1)=48.0561188355
Q3(905,0)=9040
Q3(905,1)=48.0561188355
Q3(906,0)=9050
Q3(906,1)=48.0561188355
Q3(907,0)=9060
Q3(907,1)=48.0561188355
Q3(908,0)=9070
Q3(908,1)=48.0561188355
Q3(909,0)=9080
Q3(909,1)=48.0561188355
Q3(910,0)=9090
Q3(910,1)=48.0561188355
Q3(911,0)=9100
Q3(911,1)=48.0561188355
Q3(912,0)=9110
Q3(912,1)=48.0561188355
Q3(913,0)=9120
Q3(913,1)=48.0561188355
Q3(914,0)=9130
Q3(914,1)=48.0561188355
Q3(915,0)=9140
Q3(915,1)=48.0561188355
Q3(916,0)=9150
Q3(916,1)=48.0561188355
Q3(917,0)=9160
Q3(917,1)=48.0561188355
Q3(918,0)=9170
Q3(918,1)=48.0561188355
Q3(919,0)=9180
Q3(919,1)=48.0561188355
Q3(920,0)=9190
Q3(920,1)=48.0561188355
Q3(921,0)=9200
Q3(921,1)=48.0561188355
Q3(922,0)=9210
Q3(922,1)=48.0561188355
Q3(923,0)=9220
Q3(923,1)=48.0561188355
Q3(924,0)=9230
Q3(924,1)=48.0561188355
Q3(925,0)=9240
Q3(925,1)=48.0561188355
Q3(926,0)=9250
Q3(926,1)=48.0561188355
Q3(927,0)=9260
Q3(927,1)=48.0561188355
Q3(928,0)=9270
Q3(928,1)=48.0561188355
Q3(929,0)=9280
Q3(929,1)=48.0561188355
Q3(930,0)=9290
Q3(930,1)=48.0561188355
Q3(931,0)=9300
Q3(931,1)=48.0561188355
Q3(932,0)=9310
Q3(932,1)=48.0561188355
Q3(933,0)=9320
Q3(933,1)=48.0561188355
Q3(934,0)=9330
Q3(934,1)=48.0561188355
Q3(935,0)=9340
Q3(935,1)=48.0561188355
Q3(936,0)=9350
Q3(936,1)=48.0561188355
Q3(937,0)=9360
Q3(937,1)=48.0561188355
Q3(938,0)=9370
Q3(938,1)=48.0561188355
Q3(939,0)=9380
Q3(939,1)=48.0561188355
Q3(940,0)=9390
Q3(940,1)=48.0561188355
Q3(941,0)=9400
Q3(941,1)=48.0561188355
Q3(942,0)=9410
Q3(942,1)=48.0561188355
Q3(943,0)=9420
Q3(943,1)=48.0561188355
Q3(944,0)=9430
Q3(944,1)=48.0561188355
Q3(945,0)=9440
Q3(945,1)=48.0561188355
Q3(946,0)=9450
Q3(946,1)=48.0561188355
Q3(947,0)=9460
Q3(947,1)=1036.28906513
Q3(948,0)=9470
Q3(948,1)=1040.30713995
Q3(949,0)=9480
Q3(949,1)=1044.19940676
Q3(950,0)=9490
Q3(950,1)=1047.96537205
Q3(951,0)=9500
Q3(951,1)=1051.60455834
Q3(952,0)=9510
Q3(952,1)=1055.11650421
Q3(953,0)=9520
Q3(953,1)=1058.50076438
Q3(954,0)=9530
Q3(954,1)=1061.75690976
Q3(955,0)=9540
Q3(955,1)=1064.88452749
Q3(956,0)=9550
Q3(956,1)=1067.88322103
Q3(957,0)=9560
Q3(957,1)=1070.75261018
Q3(958,0)=9570
Q3(958,1)=1073.49233111
Q3(959,0)=9580
Q3(959,1)=1076.10203647
Q3(960,0)=9590
Q3(960,1)=1078.58139535
Q3(961,0)=9600
Q3(961,1)=1080.93009341
Q3(962,0)=9610
Q3(962,1)=1083.14783286
Q3(963,0)=9620
Q3(963,1)=1085.23433249
Q3(964,0)=9630
Q3(964,1)=1087.18932777
Q3(965,0)=9640
Q3(965,1)=1089.01257082
Q3(966,0)=9650
Q3(966,1)=1090.70383048
Q3(967,0)=9660
Q3(967,1)=1092.26289229
Q3(968,0)=9670
Q3(968,1)=1093.6895586
Q3(969,0)=9680
Q3(969,1)=1094.98364851
Q3(970,0)=9690
Q3(970,1)=1096.14499794
Q3(971,0)=9700
Q3(971,1)=1097.17345965
Q3(972,0)=9710
Q3(972,1)=1098.06890323
Q3(973,0)=9720
Q3(973,1)=1098.83121516
Q3(974,0)=9730
Q3(974,1)=1099.46029878
Q3(975,0)=9740
Q3(975,1)=1099.95607432
Q3(976,0)=9750
Q3(976,1)=1100.31847894
Q3(977,0)=9760
Q3(977,1)=1100.54746667
Q3(978,0)=9770
Q3(978,1)=1100.64300848
Q3(979,0)=9780
Q3(979,1)=1101.39025932
Q3(980,0)=9790
Q3(980,1)=1102.22014862
Q3(981,0)=9800
Q3(981,1)=1102.91637993
Q3(982,0)=9810
Q3(982,1)=1103.47886497
Q3(983,0)=9820
Q3(983,1)=1103.90753242
Q3(984,0)=9830
Q3(984,1)=1104.20232793
Q3(985,0)=9840
Q3(985,1)=1104.36321412
Q3(986,0)=9850
Q3(986,1)=1104.3901706
Q3(987,0)=9860
Q3(987,1)=1104.28319394
Q3(988,0)=9870
Q3(988,1)=1104.04229771
Q3(989,0)=9880
Q3(989,1)=1103.66751246
Q3(990,0)=9890
Q3(990,1)=1103.1588857
Q3(991,0)=9900
Q3(991,1)=1102.51648192
Q3(992,0)=9910
Q3(992,1)=1101.74038257
Q3(993,0)=9920
Q3(993,1)=1100.83068606
Q3(994,0)=9930
Q3(994,1)=1099.78750772
Q3(995,0)=9940
Q3(995,1)=1098.61097983
Q3(996,0)=9950
Q3(996,1)=1097.30125154
Q3(997,0)=9960
Q3(997,1)=1095.85848893
Q3(998,0)=9970
Q3(998,1)=1094.28287493
Q3(999,0)=9980
Q3(999,1)=1092.5746093
Q3(1000,0)=9990
Q3(1000,1)=1090.73390863
Q3(1001,0)=10000
Q3(1001,1)=1088.76100632
Q3(1002,0)=10010
Q3(1002,1)=1086.6561525
Q3(1003,0)=10020
Q3(1003,1)=1084.41961406
Q3(1004,0)=10030
Q3(1004,1)=1082.05167456
Q3(1005,0)=10040
Q3(1005,1)=1079.55263423
Q3(1006,0)=10050
Q3(1006,1)=1076.92280994
Q3(1007,0)=10060
Q3(1007,1)=1074.16253511
Q3(1008,0)=10070
Q3(1008,1)=1071.27215972
Q3(1009,0)=10080
Q3(1009,1)=1068.25205025
Q3(1010,0)=10090
Q3(1010,1)=1065.10258962
Q3(1011,0)=10100
Q3(1011,1)=1061.82417715
Q3(1012,0)=10110
Q3(1012,1)=1058.41722851
Q3(1013,0)=10120
Q3(1013,1)=1054.88217567
Q3(1014,0)=10130
Q3(1014,1)=1051.21946683
Q3(1015,0)=10140
Q3(1015,1)=1047.42956641
Q3(1016,0)=10150
Q3(1016,1)=1043.51295491
Q3(1017,0)=10160
Q3(1017,1)=1039.47012894
Q3(1018,0)=10170
Q3(1018,1)=1035.30160107
Q3(1019,0)=10180
Q3(1019,1)=1031.00789985
Q3(1020,0)=10190
Q3(1020,1)=1026.58956967
Q3(1021,0)=10200
Q3(1021,1)=1022.04717074
Q3(1022,0)=10210
Q3(1022,1)=1017.38127898
Q3(1023,0)=10220
Q3(1023,1)=1012.59248599
Q3(1024,0)=10230
Q3(1024,1)=1007.68139894
Q3(1025,0)=10240
Q3(1025,1)=1002.64864051
Q3(1026,0)=10250
Q3(1026,1)=997.494848812
Q3(1027,0)=10260
Q3(1027,1)=992.22067729
Q3(1028,0)=10270
Q3(1028,1)=986.826794662
Q3(1029,0)=10280
Q3(1029,1)=981.313884821
Q3(1030,0)=10290
Q3(1030,1)=975.682646751
Q3(1031,0)=10300
Q3(1031,1)=969.933794441
Q3(1032,0)=10310
Q3(1032,1)=964.06805679
Q3(1033,0)=10320
Q3(1033,1)=958.086177517
Q3(1034,0)=10330
Q3(1034,1)=951.988915069
Q3(1035,0)=10340
Q3(1035,1)=945.77704252
Q3(1036,0)=10350
Q3(1036,1)=939.451347477
Q3(1037,0)=10360
Q3(1037,1)=933.012631978
Q3(1038,0)=10370
Q3(1038,1)=926.461712391
Q3(1039,0)=10380
Q3(1039,1)=919.799419311
Q3(1040,0)=10390
Q3(1040,1)=913.026597452
Q3(1041,0)=10400
Q3(1041,1)=906.144105545
Q3(1042,0)=10410
Q3(1042,1)=899.152816225
Q3(1043,0)=10420
Q3(1043,1)=892.053615919
Q3(1044,0)=10430
Q3(1044,1)=884.847404741
Q3(1045,0)=10440
Q3(1045,1)=877.535096368
Q3(1046,0)=10450
Q3(1046,1)=870.117617932
Q3(1047,0)=10460
Q3(1047,1)=862.595909899
Q3(1048,0)=10470
Q3(1048,1)=854.97092595
Q3(1049,0)=10480
Q3(1049,1)=847.243632861
Q3(1050,0)=10490
Q3(1050,1)=839.415010379
Q3(1051,0)=10500
Q3(1051,1)=831.4860511
Q3(1052,0)=10510
Q3(1052,1)=823.457760339
Q3(1053,0)=10520
Q3(1053,1)=815.331156009
Q3(1054,0)=10530
Q3(1054,1)=807.107268484
Q3(1055,0)=10540
Q3(1055,1)=798.787140478
Q3(1056,0)=10550
Q3(1056,1)=790.371826902
Q3(1057,0)=10560
Q3(1057,1)=781.862394738
Q3(1058,0)=10570
Q3(1058,1)=773.259922902
Q3(1059,0)=10580
Q3(1059,1)=764.565502106
Q3(1060,0)=10590
Q3(1060,1)=755.780234719
Q3(1061,0)=10600
Q3(1061,1)=746.905234631
Q3(1062,0)=10610
Q3(1062,1)=737.941627106
Q3(1063,0)=10620
Q3(1063,1)=728.890548646
Q3(1064,0)=10630
Q3(1064,1)=719.75314684
Q3(1065,0)=10640
Q3(1065,1)=710.530580226
Q3(1066,0)=10650
Q3(1066,1)=701.224018137
Q3(1067,0)=10660
Q3(1067,1)=691.834640556
Q3(1068,0)=10670
Q3(1068,1)=682.363637968
Q3(1069,0)=10680
Q3(1069,1)=672.812211206
Q3(1070,0)=10690
Q3(1070,1)=663.1815713
Q3(1071,0)=10700
Q3(1071,1)=653.472939324
Q3(1072,0)=10710
Q3(1072,1)=643.687546241
Q3(1073,0)=10720
Q3(1073,1)=633.826632744
Q3(1074,0)=10730
Q3(1074,1)=623.891449105
Q3(1075,0)=10740
Q3(1075,1)=613.883255011
Q3(1076,0)=10750
Q3(1076,1)=603.803319406
Q3(1077,0)=10760
Q3(1077,1)=593.652920329
Q3(1078,0)=10770
Q3(1078,1)=583.433344755
Q3(1079,0)=10780
Q3(1079,1)=573.14588843
Q3(1080,0)=10790
Q3(1080,1)=562.791855704
Q3(1081,0)=10800
Q3(1081,1)=552.372559372
Q3(1082,0)=10810
Q3(1082,1)=541.889320501
Q3(1083,0)=10820
Q3(1083,1)=531.343468267
Q3(1084,0)=10830
Q3(1084,1)=520.736339782
Q3(1085,0)=10840
Q3(1085,1)=510.069279931
Q3(1086,0)=10850
Q3(1086,1)=499.343641196
Q3(1087,0)=10860
Q3(1087,1)=488.560783485
Q3(1088,0)=10870
Q3(1088,1)=477.722073963
Q3(1089,0)=10880
Q3(1089,1)=466.828886876
Q3(1090,0)=10890
Q3(1090,1)=455.882603375
Q3(1091,0)=10900
Q3(1091,1)=444.884611346
Q3(1092,0)=10910
Q3(1092,1)=433.83630523
Q3(1093,0)=10920
Q3(1093,1)=422.739085848
Q3(1094,0)=10930
Q3(1094,1)=411.59436022
Q3(1095,0)=10940
Q3(1095,1)=400.403541394
Q3(1096,0)=10950
Q3(1096,1)=389.168048258
Q3(1097,0)=10960
Q3(1097,1)=377.889305366
Q3(1098,0)=10970
Q3(1098,1)=366.568742757
Q3(1099,0)=10980
Q3(1099,1)=355.207795769
Q3(1100,0)=10990
Q3(1100,1)=343.807904863
Q3(1101,0)=11000
Q3(1101,1)=332.370515438
Q3(1102,0)=11010
Q3(1102,1)=320.897077645
Q3(1103,0)=11020
Q3(1103,1)=309.389046207
Q3(1104,0)=11030
Q3(1104,1)=297.847880234
Q3(1105,0)=11040
Q3(1105,1)=286.275043037
Q3(1106,0)=11050
Q3(1106,1)=274.67200194
Q3(1107,0)=11060
Q3(1107,1)=263.0402281
Q3(1108,0)=11070
Q3(1108,1)=251.381196315
Q3(1109,0)=11080
Q3(1109,1)=239.696384839
Q3(1110,0)=11090
Q3(1110,1)=227.987275197
Q3(1111,0)=11100
Q3(1111,1)=216.255351991
Q3(1112,0)=11110
Q3(1112,1)=204.502102719
Q3(1113,0)=11120
Q3(1113,1)=192.72901758
Q3(1114,0)=11130
Q3(1114,1)=180.937589291
Q3(1115,0)=11140
Q3(1115,1)=169.129312893
Q3(1116,0)=11150
Q3(1116,1)=157.305685562
Q3(1117,0)=11160
Q3(1117,1)=145.468206423
*DIM,Q4,TABLE,1117,1,1,TIME
Q4(1,0)=0
Q4(1,1)=136.983240207
Q4(2,0)=10
Q4(2,1)=140.352972741
Q4(3,0)=20
Q4(3,1)=152.195969126
Q4(4,0)=30
Q4(4,1)=164.025761566
Q4(5,0)=40
Q4(5,1)=175.840850156
Q4(6,0)=50
Q4(6,1)=187.639736855
Q4(7,0)=60
Q4(7,1)=199.420925675
Q4(8,0)=70
Q4(8,1)=211.182922874
Q4(9,0)=80
Q4(9,1)=222.924237143
Q4(10,0)=90
Q4(10,1)=234.643379793
Q4(11,0)=100
Q4(11,1)=246.33886495
Q4(12,0)=110
Q4(12,1)=258.009209736
Q4(13,0)=120
Q4(13,1)=269.652934462
Q4(14,0)=130
Q4(14,1)=281.268562815
Q4(15,0)=140
Q4(15,1)=292.854622043
Q4(16,0)=150
Q4(16,1)=304.409643144
Q4(17,0)=160
Q4(17,1)=315.932161051
Q4(18,0)=170
Q4(18,1)=327.420714818
Q4(19,0)=180
Q4(19,1)=338.873847805
Q4(20,0)=190
Q4(20,1)=350.290107864
Q4(21,0)=200
Q4(21,1)=361.668047521
Q4(22,0)=210
Q4(22,1)=373.006224161
Q4(23,0)=220
Q4(23,1)=384.303200212
Q4(24,0)=230
Q4(24,1)=395.557543324
Q4(25,0)=240
Q4(25,1)=406.767826552
Q4(26,0)=250
Q4(26,1)=417.932628541
Q4(27,0)=260
Q4(27,1)=429.050533697
Q4(28,0)=270
Q4(28,1)=440.120132378
Q4(29,0)=280
Q4(29,1)=451.140021062
Q4(30,0)=290
Q4(30,1)=462.108802532
Q4(31,0)=300
Q4(31,1)=473.025086052
Q4(32,0)=310
Q4(32,1)=483.887487539
Q4(33,0)=320
Q4(33,1)=494.694629744
Q4(34,0)=330
Q4(34,1)=505.445142425
Q4(35,0)=340
Q4(35,1)=516.137662518
Q4(36,0)=350
Q4(36,1)=526.770834313
Q4(37,0)=360
Q4(37,1)=537.343309625
Q4(38,0)=370
Q4(38,1)=547.853747964
Q4(39,0)=380
Q4(39,1)=558.300816707
Q4(40,0)=390
Q4(40,1)=568.683191264
Q4(41,0)=400
Q4(41,1)=578.999555249
Q4(42,0)=410
Q4(42,1)=589.248600644
Q4(43,0)=420
Q4(43,1)=599.429027969
Q4(44,0)=430
Q4(44,1)=609.539546441
Q4(45,0)=440
Q4(45,1)=619.578874143
Q4(46,0)=450
Q4(46,1)=629.545738182
Q4(47,0)=460
Q4(47,1)=639.438874857
Q4(48,0)=470
Q4(48,1)=649.257029809
Q4(49,0)=480
Q4(49,1)=658.998958192
Q4(50,0)=490
Q4(50,1)=668.66342482
Q4(51,0)=500
Q4(51,1)=678.249204331
Q4(52,0)=510
Q4(52,1)=687.755081339
Q4(53,0)=520
Q4(53,1)=697.179850588
Q4(54,0)=530
Q4(54,1)=706.522317109
Q4(55,0)=540
Q4(55,1)=715.781296365
Q4(56,0)=550
Q4(56,1)=724.955614404
Q4(57,0)=560
Q4(57,1)=734.044108011
Q4(58,0)=570
Q4(58,1)=743.04562485
Q4(59,0)=580
Q4(59,1)=751.959023616
Q4(60,0)=590
Q4(60,1)=760.783174172
Q4(61,0)=600
Q4(61,1)=769.516957702
Q4(62,0)=610
Q4(62,1)=778.159266844
Q4(63,0)=620
Q4(63,1)=786.709005834
Q4(64,0)=630
Q4(64,1)=795.165090649
Q4(65,0)=640
Q4(65,1)=803.526449135
Q4(66,0)=650
Q4(66,1)=811.792021153
Q4(67,0)=660
Q4(67,1)=819.960758706
Q4(68,0)=670
Q4(68,1)=828.031626075
Q4(69,0)=680
Q4(69,1)=836.003599952
Q4(70,0)=690
Q4(70,1)=843.875669566
Q4(71,0)=700
Q4(71,1)=851.646836813
Q4(72,0)=710
Q4(72,1)=859.316116382
Q4(73,0)=720
Q4(73,1)=866.882535882
Q4(74,0)=730
Q4(74,1)=874.345135963
Q4(75,0)=740
Q4(75,1)=881.702970438
Q4(76,0)=750
Q4(76,1)=888.955106403
Q4(77,0)=760
Q4(77,1)=896.100624356
Q4(78,0)=770
Q4(78,1)=903.138618313
Q4(79,0)=780
Q4(79,1)=910.068195924
Q4(80,0)=790
Q4(80,1)=916.888478583
Q4(81,0)=800
Q4(81,1)=923.598601545
Q4(82,0)=810
Q4(82,1)=930.197714028
Q4(83,0)=820
Q4(83,1)=936.684979327
Q4(84,0)=830
Q4(84,1)=943.059574921
Q4(85,0)=840
Q4(85,1)=949.320692569
Q4(86,0)=850
Q4(86,1)=955.467538422
Q4(87,0)=860
Q4(87,1)=961.499333117
Q4(88,0)=870
Q4(88,1)=967.415311882
Q4(89,0)=880
Q4(89,1)=973.214724625
Q4(90,0)=890
Q4(90,1)=978.896836036
Q4(91,0)=900
Q4(91,1)=984.460925678
Q4(92,0)=910
Q4(92,1)=989.906288076
Q4(93,0)=920
Q4(93,1)=995.232232811
Q4(94,0)=930
Q4(94,1)=1000.4380846
Q4(95,0)=940
Q4(95,1)=1005.5231834
Q4(96,0)=950
Q4(96,1)=1010.48688446
Q4(97,0)=960
Q4(97,1)=1015.32855843
Q4(98,0)=970
Q4(98,1)=1020.04759143
Q4(99,0)=980
Q4(99,1)=1024.64338514
Q4(100,0)=990
Q4(100,1)=1029.11535685
Q4(101,0)=1000
Q4(101,1)=1033.46293956
Q4(102,0)=1010
Q4(102,1)=1037.68558204
Q4(103,0)=1020
Q4(103,1)=1041.78274889
Q4(104,0)=1030
Q4(104,1)=1045.75392063
Q4(105,0)=1040
Q4(105,1)=1049.59859376
Q4(106,0)=1050
Q4(106,1)=1053.31628081
Q4(107,0)=1060
Q4(107,1)=1056.90651041
Q4(108,0)=1070
Q4(108,1)=1060.36882736
Q4(109,0)=1080
Q4(109,1)=1063.70279266
Q4(110,0)=1090
Q4(110,1)=1066.9079836
Q4(111,0)=1100
Q4(111,1)=1069.98399379
Q4(112,0)=1110
Q4(112,1)=1072.93043322
Q4(113,0)=1120
Q4(113,1)=1075.74692832
Q4(114,0)=1130
Q4(114,1)=1078.43312198
Q4(115,0)=1140
Q4(115,1)=1080.9886736
Q4(116,0)=1150
Q4(116,1)=1083.41325919
Q4(117,0)=1160
Q4(117,1)=1085.70657131
Q4(118,0)=1170
Q4(118,1)=1087.8683192
Q4(119,0)=1180
Q4(119,1)=1089.89822877
Q4(120,0)=1190
Q4(120,1)=1091.79604265
Q4(121,0)=1200
Q4(121,1)=1093.56152022
Q4(122,0)=1210
Q4(122,1)=1095.19443762
Q4(123,0)=1220
Q4(123,1)=1096.69458781
Q4(124,0)=1230
Q4(124,1)=1098.0617806
Q4(125,0)=1240
Q4(125,1)=1099.29584264
Q4(126,0)=1250
Q4(126,1)=1100.39661745
Q4(127,0)=1260
Q4(127,1)=1101.36396548
Q4(128,0)=1270
Q4(128,1)=1102.19776407
Q4(129,0)=1280
Q4(129,1)=1102.8979075
Q4(130,0)=1290
Q4(130,1)=1103.464307
Q4(131,0)=1300
Q4(131,1)=1103.89689075
Q4(132,0)=1310
Q4(132,1)=1104.19560392
Q4(133,0)=1320
Q4(133,1)=1104.36040863
Q4(134,0)=1330
Q4(134,1)=1104.39128397
Q4(135,0)=1340
Q4(135,1)=1104.28822604
Q4(136,0)=1350
Q4(136,1)=1104.0512479
Q4(137,0)=1360
Q4(137,1)=1103.6803796
Q4(138,0)=1370
Q4(138,1)=1103.17566816
Q4(139,0)=1380
Q4(139,1)=1102.53717757
Q4(140,0)=1390
Q4(140,1)=1101.76498879
Q4(141,0)=1400
Q4(141,1)=1100.85919973
Q4(142,0)=1410
Q4(142,1)=1100.60509227
Q4(143,0)=1420
Q4(143,1)=1100.43372284
Q4(144,0)=1430
Q4(144,1)=1100.12892191
Q4(145,0)=1440
Q4(145,1)=1099.69072813
Q4(146,0)=1450
Q4(146,1)=1099.11919707
Q4(147,0)=1460
Q4(147,1)=1098.41440118
Q4(148,0)=1470
Q4(148,1)=1097.57642983
Q4(149,0)=1480
Q4(149,1)=1096.60538926
Q4(150,0)=1490
Q4(150,1)=1095.5014026
Q4(151,0)=1500
Q4(151,1)=1094.26460981
Q4(152,0)=1510
Q4(152,1)=1092.89516772
Q4(153,0)=1520
Q4(153,1)=1091.39324994
Q4(154,0)=1530
Q4(154,1)=1089.75904693
Q4(155,0)=1540
Q4(155,1)=1087.99276586
Q4(156,0)=1550
Q4(156,1)=1086.0946307
Q4(157,0)=1560
Q4(157,1)=1084.0648821
Q4(158,0)=1570
Q4(158,1)=1081.90377743
Q4(159,0)=1580
Q4(159,1)=1079.61159068
Q4(160,0)=1590
Q4(160,1)=1077.18861249
Q4(161,0)=1600
Q4(161,1)=1074.63515006
Q4(162,0)=1610
Q4(162,1)=1071.95152715
Q4(163,0)=1620
Q4(163,1)=1069.13808403
Q4(164,0)=1630
Q4(164,1)=1066.1951774
Q4(165,0)=1640
Q4(165,1)=1063.12318039
Q4(166,0)=1650
Q4(166,1)=1059.92248252
Q4(167,0)=1660
Q4(167,1)=1056.5934896
Q4(168,0)=1670
Q4(168,1)=1053.1366237
Q4(169,0)=1680
Q4(169,1)=1049.55232314
Q4(170,0)=1690
Q4(170,1)=1045.84104236
Q4(171,0)=1700
Q4(171,1)=1042.00325192
Q4(172,0)=1710
Q4(172,1)=1038.03943842
Q4(173,0)=1720
Q4(173,1)=1033.95010443
Q4(174,0)=1730
Q4(174,1)=48.0561188355
Q4(175,0)=1740
Q4(175,1)=48.0561188355
Q4(176,0)=1750
Q4(176,1)=48.0561188355
Q4(177,0)=1760
Q4(177,1)=48.0561188355
Q4(178,0)=1770
Q4(178,1)=48.0561188355
Q4(179,0)=1780
Q4(179,1)=48.0561188355
Q4(180,0)=1790
Q4(180,1)=48.0561188355
Q4(181,0)=1800
Q4(181,1)=48.0561188355
Q4(182,0)=1810
Q4(182,1)=48.0561188355
Q4(183,0)=1820
Q4(183,1)=48.0561188355
Q4(184,0)=1830
Q4(184,1)=48.0561188355
Q4(185,0)=1840
Q4(185,1)=48.0561188355
Q4(186,0)=1850
Q4(186,1)=48.0561188355
Q4(187,0)=1860
Q4(187,1)=48.0561188355
Q4(188,0)=1870
Q4(188,1)=48.0561188355
Q4(189,0)=1880
Q4(189,1)=48.0561188355
Q4(190,0)=1890
Q4(190,1)=48.0561188355
Q4(191,0)=1900
Q4(191,1)=48.0561188355
Q4(192,0)=1910
Q4(192,1)=48.0561188355
Q4(193,0)=1920
Q4(193,1)=48.0561188355
Q4(194,0)=1930
Q4(194,1)=48.0561188355
Q4(195,0)=1940
Q4(195,1)=48.0561188355
Q4(196,0)=1950
Q4(196,1)=48.0561188355
Q4(197,0)=1960
Q4(197,1)=48.0561188355
Q4(198,0)=1970
Q4(198,1)=48.0561188355
Q4(199,0)=1980
Q4(199,1)=48.0561188355
Q4(200,0)=1990
Q4(200,1)=48.0561188355
Q4(201,0)=2000
Q4(201,1)=48.0561188355
Q4(202,0)=2010
Q4(202,1)=48.0561188355
Q4(203,0)=2020
Q4(203,1)=48.0561188355
Q4(204,0)=2030
Q4(204,1)=48.0561188355
Q4(205,0)=2040
Q4(205,1)=48.0561188355
Q4(206,0)=2050
Q4(206,1)=48.0561188355
Q4(207,0)=2060
Q4(207,1)=48.0561188355
Q4(208,0)=2070
Q4(208,1)=48.0561188355
Q4(209,0)=2080
Q4(209,1)=48.0561188355
Q4(210,0)=2090
Q4(210,1)=48.0561188355
Q4(211,0)=2100
Q4(211,1)=48.0561188355
Q4(212,0)=2110
Q4(212,1)=48.0561188355
Q4(213,0)=2120
Q4(213,1)=48.0561188355
Q4(214,0)=2130
Q4(214,1)=48.0561188355
Q4(215,0)=2140
Q4(215,1)=48.0561188355
Q4(216,0)=2150
Q4(216,1)=48.0561188355
Q4(217,0)=2160
Q4(217,1)=48.0561188355
Q4(218,0)=2170
Q4(218,1)=48.0561188355
Q4(219,0)=2180
Q4(219,1)=48.0561188355
Q4(220,0)=2190
Q4(220,1)=48.0561188355
Q4(221,0)=2200
Q4(221,1)=48.0561188355
Q4(222,0)=2210
Q4(222,1)=48.0561188355
Q4(223,0)=2220
Q4(223,1)=48.0561188355
Q4(224,0)=2230
Q4(224,1)=48.0561188355
Q4(225,0)=2240
Q4(225,1)=48.0561188355
Q4(226,0)=2250
Q4(226,1)=48.0561188355
Q4(227,0)=2260
Q4(227,1)=48.0561188355
Q4(228,0)=2270
Q4(228,1)=48.0561188355
Q4(229,0)=2280
Q4(229,1)=48.0561188355
Q4(230,0)=2290
Q4(230,1)=48.0561188355
Q4(231,0)=2300
Q4(231,1)=48.0561188355
Q4(232,0)=2310
Q4(232,1)=48.0561188355
Q4(233,0)=2320
Q4(233,1)=48.0561188355
Q4(234,0)=2330
Q4(234,1)=48.0561188355
Q4(235,0)=2340
Q4(235,1)=48.0561188355
Q4(236,0)=2350
Q4(236,1)=48.0561188355
Q4(237,0)=2360
Q4(237,1)=48.0561188355
Q4(238,0)=2370
Q4(238,1)=48.0561188355
Q4(239,0)=2380
Q4(239,1)=48.0561188355
Q4(240,0)=2390
Q4(240,1)=48.0561188355
Q4(241,0)=2400
Q4(241,1)=48.0561188355
Q4(242,0)=2410
Q4(242,1)=48.0561188355
Q4(243,0)=2420
Q4(243,1)=48.0561188355
Q4(244,0)=2430
Q4(244,1)=48.0561188355
Q4(245,0)=2440
Q4(245,1)=48.0561188355
Q4(246,0)=2450
Q4(246,1)=48.0561188355
Q4(247,0)=2460
Q4(247,1)=48.0561188355
Q4(248,0)=2470
Q4(248,1)=48.0561188355
Q4(249,0)=2480
Q4(249,1)=48.0561188355
Q4(250,0)=2490
Q4(250,1)=48.0561188355
Q4(251,0)=2500
Q4(251,1)=48.0561188355
Q4(252,0)=2510
Q4(252,1)=48.0561188355
Q4(253,0)=2520
Q4(253,1)=48.0561188355
Q4(254,0)=2530
Q4(254,1)=48.0561188355
Q4(255,0)=2540
Q4(255,1)=48.0561188355
Q4(256,0)=2550
Q4(256,1)=48.0561188355
Q4(257,0)=2560
Q4(257,1)=48.0561188355
Q4(258,0)=2570
Q4(258,1)=48.0561188355
Q4(259,0)=2580
Q4(259,1)=48.0561188355
Q4(260,0)=2590
Q4(260,1)=48.0561188355
Q4(261,0)=2600
Q4(261,1)=48.0561188355
Q4(262,0)=2610
Q4(262,1)=48.0561188355
Q4(263,0)=2620
Q4(263,1)=48.0561188355
Q4(264,0)=2630
Q4(264,1)=48.0561188355
Q4(265,0)=2640
Q4(265,1)=48.0561188355
Q4(266,0)=2650
Q4(266,1)=48.0561188355
Q4(267,0)=2660
Q4(267,1)=48.0561188355
Q4(268,0)=2670
Q4(268,1)=48.0561188355
Q4(269,0)=2680
Q4(269,1)=48.0561188355
Q4(270,0)=2690
Q4(270,1)=48.0561188355
Q4(271,0)=2700
Q4(271,1)=48.0561188355
Q4(272,0)=2710
Q4(272,1)=48.0561188355
Q4(273,0)=2720
Q4(273,1)=48.0561188355
Q4(274,0)=2730
Q4(274,1)=48.0561188355
Q4(275,0)=2740
Q4(275,1)=48.0561188355
Q4(276,0)=2750
Q4(276,1)=48.0561188355
Q4(277,0)=2760
Q4(277,1)=48.0561188355
Q4(278,0)=2770
Q4(278,1)=48.0561188355
Q4(279,0)=2780
Q4(279,1)=48.0561188355
Q4(280,0)=2790
Q4(280,1)=48.0561188355
Q4(281,0)=2800
Q4(281,1)=48.0561188355
Q4(282,0)=2810
Q4(282,1)=48.0561188355
Q4(283,0)=2820
Q4(283,1)=48.0561188355
Q4(284,0)=2830
Q4(284,1)=48.0561188355
Q4(285,0)=2840
Q4(285,1)=48.0561188355
Q4(286,0)=2850
Q4(286,1)=48.0561188355
Q4(287,0)=2860
Q4(287,1)=48.0561188355
Q4(288,0)=2870
Q4(288,1)=48.0561188355
Q4(289,0)=2880
Q4(289,1)=48.0561188355
Q4(290,0)=2890
Q4(290,1)=48.0561188355
Q4(291,0)=2900
Q4(291,1)=48.0561188355
Q4(292,0)=2910
Q4(292,1)=48.0561188355
Q4(293,0)=2920
Q4(293,1)=48.0561188355
Q4(294,0)=2930
Q4(294,1)=48.0561188355
Q4(295,0)=2940
Q4(295,1)=48.0561188355
Q4(296,0)=2950
Q4(296,1)=48.0561188355
Q4(297,0)=2960
Q4(297,1)=48.0561188355
Q4(298,0)=2970
Q4(298,1)=48.0561188355
Q4(299,0)=2980
Q4(299,1)=48.0561188355
Q4(300,0)=2990
Q4(300,1)=48.0561188355
Q4(301,0)=3000
Q4(301,1)=48.0561188355
Q4(302,0)=3010
Q4(302,1)=48.0561188355
Q4(303,0)=3020
Q4(303,1)=48.0561188355
Q4(304,0)=3030
Q4(304,1)=48.0561188355
Q4(305,0)=3040
Q4(305,1)=48.0561188355
Q4(306,0)=3050
Q4(306,1)=48.0561188355
Q4(307,0)=3060
Q4(307,1)=48.0561188355
Q4(308,0)=3070
Q4(308,1)=48.0561188355
Q4(309,0)=3080
Q4(309,1)=48.0561188355
Q4(310,0)=3090
Q4(310,1)=48.0561188355
Q4(311,0)=3100
Q4(311,1)=48.0561188355
Q4(312,0)=3110
Q4(312,1)=48.0561188355
Q4(313,0)=3120
Q4(313,1)=48.0561188355
Q4(314,0)=3130
Q4(314,1)=48.0561188355
Q4(315,0)=3140
Q4(315,1)=48.0561188355
Q4(316,0)=3150
Q4(316,1)=48.0561188355
Q4(317,0)=3160
Q4(317,1)=48.0561188355
Q4(318,0)=3170
Q4(318,1)=48.0561188355
Q4(319,0)=3180
Q4(319,1)=48.0561188355
Q4(320,0)=3190
Q4(320,1)=48.0561188355
Q4(321,0)=3200
Q4(321,1)=48.0561188355
Q4(322,0)=3210
Q4(322,1)=48.0561188355
Q4(323,0)=3220
Q4(323,1)=48.0561188355
Q4(324,0)=3230
Q4(324,1)=48.0561188355
Q4(325,0)=3240
Q4(325,1)=48.0561188355
Q4(326,0)=3250
Q4(326,1)=48.0561188355
Q4(327,0)=3260
Q4(327,1)=48.0561188355
Q4(328,0)=3270
Q4(328,1)=48.0561188355
Q4(329,0)=3280
Q4(329,1)=48.0561188355
Q4(330,0)=3290
Q4(330,1)=48.0561188355
Q4(331,0)=3300
Q4(331,1)=48.0561188355
Q4(332,0)=3310
Q4(332,1)=48.0561188355
Q4(333,0)=3320
Q4(333,1)=48.0561188355
Q4(334,0)=3330
Q4(334,1)=48.0561188355
Q4(335,0)=3340
Q4(335,1)=48.0561188355
Q4(336,0)=3350
Q4(336,1)=48.0561188355
Q4(337,0)=3360
Q4(337,1)=48.0561188355
Q4(338,0)=3370
Q4(338,1)=48.0561188355
Q4(339,0)=3380
Q4(339,1)=48.0561188355
Q4(340,0)=3390
Q4(340,1)=48.0561188355
Q4(341,0)=3400
Q4(341,1)=48.0561188355
Q4(342,0)=3410
Q4(342,1)=48.0561188355
Q4(343,0)=3420
Q4(343,1)=48.0561188355
Q4(344,0)=3430
Q4(344,1)=48.0561188355
Q4(345,0)=3440
Q4(345,1)=48.0561188355
Q4(346,0)=3450
Q4(346,1)=48.0561188355
Q4(347,0)=3460
Q4(347,1)=48.0561188355
Q4(348,0)=3470
Q4(348,1)=48.0561188355
Q4(349,0)=3480
Q4(349,1)=48.0561188355
Q4(350,0)=3490
Q4(350,1)=48.0561188355
Q4(351,0)=3500
Q4(351,1)=48.0561188355
Q4(352,0)=3510
Q4(352,1)=48.0561188355
Q4(353,0)=3520
Q4(353,1)=48.0561188355
Q4(354,0)=3530
Q4(354,1)=48.0561188355
Q4(355,0)=3540
Q4(355,1)=48.0561188355
Q4(356,0)=3550
Q4(356,1)=48.0561188355
Q4(357,0)=3560
Q4(357,1)=48.0561188355
Q4(358,0)=3570
Q4(358,1)=48.0561188355
Q4(359,0)=3580
Q4(359,1)=48.0561188355
Q4(360,0)=3590
Q4(360,1)=48.0561188355
Q4(361,0)=3600
Q4(361,1)=48.0561188355
Q4(362,0)=3610
Q4(362,1)=48.0561188355
Q4(363,0)=3620
Q4(363,1)=48.0561188355
Q4(364,0)=3630
Q4(364,1)=48.0561188355
Q4(365,0)=3640
Q4(365,1)=48.0561188355
Q4(366,0)=3650
Q4(366,1)=48.0561188355
Q4(367,0)=3660
Q4(367,1)=48.0561188355
Q4(368,0)=3670
Q4(368,1)=48.0561188355
Q4(369,0)=3680
Q4(369,1)=48.0561188355
Q4(370,0)=3690
Q4(370,1)=48.0561188355
Q4(371,0)=3700
Q4(371,1)=48.0561188355
Q4(372,0)=3710
Q4(372,1)=48.0561188355
Q4(373,0)=3720
Q4(373,1)=48.0561188355
Q4(374,0)=3730
Q4(374,1)=48.0561188355
Q4(375,0)=3740
Q4(375,1)=48.0561188355
Q4(376,0)=3750
Q4(376,1)=48.0561188355
Q4(377,0)=3760
Q4(377,1)=48.0561188355
Q4(378,0)=3770
Q4(378,1)=48.0561188355
Q4(379,0)=3780
Q4(379,1)=48.0561188355
Q4(380,0)=3790
Q4(380,1)=48.0561188355
Q4(381,0)=3800
Q4(381,1)=48.0561188355
Q4(382,0)=3810
Q4(382,1)=48.0561188355
Q4(383,0)=3820
Q4(383,1)=48.0561188355
Q4(384,0)=3830
Q4(384,1)=48.0561188355
Q4(385,0)=3840
Q4(385,1)=48.0561188355
Q4(386,0)=3850
Q4(386,1)=48.0561188355
Q4(387,0)=3860
Q4(387,1)=48.0561188355
Q4(388,0)=3870
Q4(388,1)=48.0561188355
Q4(389,0)=3880
Q4(389,1)=48.0561188355
Q4(390,0)=3890
Q4(390,1)=48.0561188355
Q4(391,0)=3900
Q4(391,1)=48.0561188355
Q4(392,0)=3910
Q4(392,1)=48.0561188355
Q4(393,0)=3920
Q4(393,1)=48.0561188355
Q4(394,0)=3930
Q4(394,1)=48.0561188355
Q4(395,0)=3940
Q4(395,1)=48.0561188355
Q4(396,0)=3950
Q4(396,1)=48.0561188355
Q4(397,0)=3960
Q4(397,1)=48.0561188355
Q4(398,0)=3970
Q4(398,1)=48.0561188355
Q4(399,0)=3980
Q4(399,1)=48.0561188355
Q4(400,0)=3990
Q4(400,1)=48.0561188355
Q4(401,0)=4000
Q4(401,1)=48.0561188355
Q4(402,0)=4010
Q4(402,1)=48.0561188355
Q4(403,0)=4020
Q4(403,1)=48.0561188355
Q4(404,0)=4030
Q4(404,1)=48.0561188355
Q4(405,0)=4040
Q4(405,1)=48.0561188355
Q4(406,0)=4050
Q4(406,1)=48.0561188355
Q4(407,0)=4060
Q4(407,1)=48.0561188355
Q4(408,0)=4070
Q4(408,1)=48.0561188355
Q4(409,0)=4080
Q4(409,1)=48.0561188355
Q4(410,0)=4090
Q4(410,1)=48.0561188355
Q4(411,0)=4100
Q4(411,1)=48.0561188355
Q4(412,0)=4110
Q4(412,1)=48.0561188355
Q4(413,0)=4120
Q4(413,1)=48.0561188355
Q4(414,0)=4130
Q4(414,1)=48.0561188355
Q4(415,0)=4140
Q4(415,1)=48.0561188355
Q4(416,0)=4150
Q4(416,1)=48.0561188355
Q4(417,0)=4160
Q4(417,1)=48.0561188355
Q4(418,0)=4170
Q4(418,1)=48.0561188355
Q4(419,0)=4180
Q4(419,1)=48.0561188355
Q4(420,0)=4190
Q4(420,1)=48.0561188355
Q4(421,0)=4200
Q4(421,1)=48.8412858804
Q4(422,0)=4210
Q4(422,1)=49.8425446189
Q4(423,0)=4220
Q4(423,1)=50.8435768554
Q4(424,0)=4230
Q4(424,1)=51.8442556688
Q4(425,0)=4240
Q4(425,1)=52.8444541824
Q4(426,0)=4250
Q4(426,1)=53.8440455804
Q4(427,0)=4260
Q4(427,1)=54.8429031243
Q4(428,0)=4270
Q4(428,1)=55.8409001684
Q4(429,0)=4280
Q4(429,1)=56.837910176
Q4(430,0)=4290
Q4(430,1)=57.8338067358
Q4(431,0)=4300
Q4(431,1)=58.8284635776
Q4(432,0)=4310
Q4(432,1)=59.8217545884
Q4(433,0)=4320
Q4(433,1)=60.8135538281
Q4(434,0)=4330
Q4(434,1)=61.8037355462
Q4(435,0)=4340
Q4(435,1)=62.7921741969
Q4(436,0)=4350
Q4(436,1)=63.7787444556
Q4(437,0)=4360
Q4(437,1)=64.7633212346
Q4(438,0)=4370
Q4(438,1)=65.7457796989
Q4(439,0)=4380
Q4(439,1)=66.7259952821
Q4(440,0)=4390
Q4(440,1)=67.7038437021
Q4(441,0)=4400
Q4(441,1)=68.679200977
Q4(442,0)=4410
Q4(442,1)=69.6519434408
Q4(443,0)=4420
Q4(443,1)=70.621947759
Q4(444,0)=4430
Q4(444,1)=71.5890909443
Q4(445,0)=4440
Q4(445,1)=72.553250372
Q4(446,0)=4450
Q4(446,1)=73.5143037958
Q4(447,0)=4460
Q4(447,1)=74.4721293634
Q4(448,0)=4470
Q4(448,1)=75.4266056316
Q4(449,0)=4480
Q4(449,1)=76.3776115818
Q4(450,0)=4490
Q4(450,1)=77.3250266354
Q4(451,0)=4500
Q4(451,1)=78.2687306693
Q4(452,0)=4510
Q4(452,1)=79.2086040307
Q4(453,0)=4520
Q4(453,1)=80.1445275526
Q4(454,0)=4530
Q4(454,1)=81.0763825688
Q4(455,0)=4540
Q4(455,1)=82.0040509289
Q4(456,0)=4550
Q4(456,1)=82.9274150134
Q4(457,0)=4560
Q4(457,1)=83.8463577484
Q4(458,0)=4570
Q4(458,1)=84.7607626208
Q4(459,0)=4580
Q4(459,1)=85.6705136926
Q4(460,0)=4590
Q4(460,1)=86.5754956161
Q4(461,0)=4600
Q4(461,1)=87.4755936482
Q4(462,0)=4610
Q4(462,1)=88.370693665
Q4(463,0)=4620
Q4(463,1)=89.2606821762
Q4(464,0)=4630
Q4(464,1)=90.1454463398
Q4(465,0)=4640
Q4(465,1)=91.0248739761
Q4(466,0)=4650
Q4(466,1)=91.898853582
Q4(467,0)=4660
Q4(467,1)=92.7672743452
Q4(468,0)=4670
Q4(468,1)=93.6300261582
Q4(469,0)=4680
Q4(469,1)=94.4869996322
Q4(470,0)=4690
Q4(470,1)=95.3380861111
Q4(471,0)=4700
Q4(471,1)=96.1831776852
Q4(472,0)=4710
Q4(472,1)=97.022167205
Q4(473,0)=4720
Q4(473,1)=97.8549482946
Q4(474,0)=4730
Q4(474,1)=98.6814153651
Q4(475,0)=4740
Q4(475,1)=99.5014636284
Q4(476,0)=4750
Q4(476,1)=100.31498911
Q4(477,0)=4760
Q4(477,1)=101.121888663
Q4(478,0)=4770
Q4(478,1)=101.92205998
Q4(479,0)=4780
Q4(479,1)=102.715401607
Q4(480,0)=4790
Q4(480,1)=103.501812955
Q4(481,0)=4800
Q4(481,1)=104.281194316
Q4(482,0)=4810
Q4(482,1)=105.05344687
Q4(483,0)=4820
Q4(483,1)=105.818472705
Q4(484,0)=4830
Q4(484,1)=106.576174821
Q4(485,0)=4840
Q4(485,1)=107.326457149
Q4(486,0)=4850
Q4(486,1)=108.06922456
Q4(487,0)=4860
Q4(487,1)=108.80438288
Q4(488,0)=4870
Q4(488,1)=109.531838896
Q4(489,0)=4880
Q4(489,1)=110.251500374
Q4(490,0)=4890
Q4(490,1)=110.963276068
Q4(491,0)=4900
Q4(491,1)=111.667075731
Q4(492,0)=4910
Q4(492,1)=112.362810129
Q4(493,0)=4920
Q4(493,1)=113.050391048
Q4(494,0)=4930
Q4(494,1)=113.729731311
Q4(495,0)=4940
Q4(495,1)=114.400744782
Q4(496,0)=4950
Q4(496,1)=115.063346385
Q4(497,0)=4960
Q4(497,1)=115.717452107
Q4(498,0)=4970
Q4(498,1)=116.362979014
Q4(499,0)=4980
Q4(499,1)=116.999845259
Q4(500,0)=4990
Q4(500,1)=117.627970095
Q4(501,0)=5000
Q4(501,1)=118.247273879
Q4(502,0)=5010
Q4(502,1)=118.857678091
Q4(503,0)=5020
Q4(503,1)=119.459105338
Q4(504,0)=5030
Q4(504,1)=120.051479363
Q4(505,0)=5040
Q4(505,1)=120.63472506
Q4(506,0)=5050
Q4(506,1)=121.208768478
Q4(507,0)=5060
Q4(507,1)=121.773536835
Q4(508,0)=5070
Q4(508,1)=122.328958522
Q4(509,0)=5080
Q4(509,1)=122.874963118
Q4(510,0)=5090
Q4(510,1)=123.411481395
Q4(511,0)=5100
Q4(511,1)=123.938445327
Q4(512,0)=5110
Q4(512,1)=124.4557881
Q4(513,0)=5120
Q4(513,1)=124.96344412
Q4(514,0)=5130
Q4(514,1)=125.461349021
Q4(515,0)=5140
Q4(515,1)=125.949439673
Q4(516,0)=5150
Q4(516,1)=126.427654191
Q4(517,0)=5160
Q4(517,1)=126.895931942
Q4(518,0)=5170
Q4(518,1)=127.354213554
Q4(519,0)=5180
Q4(519,1)=127.802440919
Q4(520,0)=5190
Q4(520,1)=128.240557207
Q4(521,0)=5200
Q4(521,1)=128.66850687
Q4(522,0)=5210
Q4(522,1)=129.086235647
Q4(523,0)=5220
Q4(523,1)=129.493690574
Q4(524,0)=5230
Q4(524,1)=129.890819989
Q4(525,0)=5240
Q4(525,1)=130.277573541
Q4(526,0)=5250
Q4(526,1)=130.653902193
Q4(527,0)=5260
Q4(527,1)=131.01975823
Q4(528,0)=5270
Q4(528,1)=131.375095264
Q4(529,0)=5280
Q4(529,1)=131.719868243
Q4(530,0)=5290
Q4(530,1)=132.054033453
Q4(531,0)=5300
Q4(531,1)=132.377548524
Q4(532,0)=5310
Q4(532,1)=132.690372438
Q4(533,0)=5320
Q4(533,1)=132.992465532
Q4(534,0)=5330
Q4(534,1)=133.283789502
Q4(535,0)=5340
Q4(535,1)=133.564307414
Q4(536,0)=5350
Q4(536,1)=133.833983698
Q4(537,0)=5360
Q4(537,1)=134.092784163
Q4(538,0)=5370
Q4(538,1)=134.340675995
Q4(539,0)=5380
Q4(539,1)=134.577627764
Q4(540,0)=5390
Q4(540,1)=134.803609427
Q4(541,0)=5400
Q4(541,1)=135.018592332
Q4(542,0)=5410
Q4(542,1)=135.22254922
Q4(543,0)=5420
Q4(543,1)=135.415454231
Q4(544,0)=5430
Q4(544,1)=135.597282908
Q4(545,0)=5440
Q4(545,1)=135.768012197
Q4(546,0)=5450
Q4(546,1)=135.927620449
Q4(547,0)=5460
Q4(547,1)=136.076087429
Q4(548,0)=5470
Q4(548,1)=136.213394312
Q4(549,0)=5480
Q4(549,1)=136.339523689
Q4(550,0)=5490
Q4(550,1)=136.454459568
Q4(551,0)=5500
Q4(551,1)=136.558187377
Q4(552,0)=5510
Q4(552,1)=136.650693963
Q4(553,0)=5520
Q4(553,1)=136.731967598
Q4(554,0)=5530
Q4(554,1)=136.801997976
Q4(555,0)=5540
Q4(555,1)=136.860776219
Q4(556,0)=5550
Q4(556,1)=136.908294875
Q4(557,0)=5560
Q4(557,1)=136.944547917
Q4(558,0)=5570
Q4(558,1)=136.969530751
Q4(559,0)=5580
Q4(559,1)=136.983240207
Q4(560,0)=5590
Q4(560,1)=140.352972741
Q4(561,0)=5600
Q4(561,1)=152.195969126
Q4(562,0)=5610
Q4(562,1)=164.025761566
Q4(563,0)=5620
Q4(563,1)=175.840850156
Q4(564,0)=5630
Q4(564,1)=187.639736855
Q4(565,0)=5640
Q4(565,1)=199.420925675
Q4(566,0)=5650
Q4(566,1)=211.182922874
Q4(567,0)=5660
Q4(567,1)=222.924237143
Q4(568,0)=5670
Q4(568,1)=234.643379793
Q4(569,0)=5680
Q4(569,1)=246.33886495
Q4(570,0)=5690
Q4(570,1)=258.009209736
Q4(571,0)=5700
Q4(571,1)=269.652934462
Q4(572,0)=5710
Q4(572,1)=281.268562815
Q4(573,0)=5720
Q4(573,1)=292.854622043
Q4(574,0)=5730
Q4(574,1)=304.409643144
Q4(575,0)=5740
Q4(575,1)=315.932161051
Q4(576,0)=5750
Q4(576,1)=327.420714818
Q4(577,0)=5760
Q4(577,1)=338.873847805
Q4(578,0)=5770
Q4(578,1)=350.290107864
Q4(579,0)=5780
Q4(579,1)=361.668047521
Q4(580,0)=5790
Q4(580,1)=373.006224161
Q4(581,0)=5800
Q4(581,1)=384.303200212
Q4(582,0)=5810
Q4(582,1)=395.557543324
Q4(583,0)=5820
Q4(583,1)=406.767826552
Q4(584,0)=5830
Q4(584,1)=417.932628541
Q4(585,0)=5840
Q4(585,1)=429.050533697
Q4(586,0)=5850
Q4(586,1)=440.120132378
Q4(587,0)=5860
Q4(587,1)=451.140021062
Q4(588,0)=5870
Q4(588,1)=462.108802532
Q4(589,0)=5880
Q4(589,1)=473.025086052
Q4(590,0)=5890
Q4(590,1)=483.887487539
Q4(591,0)=5900
Q4(591,1)=494.694629744
Q4(592,0)=5910
Q4(592,1)=505.445142425
Q4(593,0)=5920
Q4(593,1)=516.137662518
Q4(594,0)=5930
Q4(594,1)=526.770834313
Q4(595,0)=5940
Q4(595,1)=537.343309625
Q4(596,0)=5950
Q4(596,1)=547.853747964
Q4(597,0)=5960
Q4(597,1)=558.300816707
Q4(598,0)=5970
Q4(598,1)=568.683191264
Q4(599,0)=5980
Q4(599,1)=578.999555249
Q4(600,0)=5990
Q4(600,1)=589.248600644
Q4(601,0)=6000
Q4(601,1)=599.429027969
Q4(602,0)=6010
Q4(602,1)=609.539546441
Q4(603,0)=6020
Q4(603,1)=619.578874143
Q4(604,0)=6030
Q4(604,1)=629.545738182
Q4(605,0)=6040
Q4(605,1)=639.438874857
Q4(606,0)=6050
Q4(606,1)=649.257029809
Q4(607,0)=6060
Q4(607,1)=658.998958192
Q4(608,0)=6070
Q4(608,1)=668.66342482
Q4(609,0)=6080
Q4(609,1)=678.249204331
Q4(610,0)=6090
Q4(610,1)=687.755081339
Q4(611,0)=6100
Q4(611,1)=697.179850588
Q4(612,0)=6110
Q4(612,1)=706.522317109
Q4(613,0)=6120
Q4(613,1)=715.781296365
Q4(614,0)=6130
Q4(614,1)=724.955614404
Q4(615,0)=6140
Q4(615,1)=734.044108011
Q4(616,0)=6150
Q4(616,1)=743.04562485
Q4(617,0)=6160
Q4(617,1)=751.959023616
Q4(618,0)=6170
Q4(618,1)=760.783174172
Q4(619,0)=6180
Q4(619,1)=769.516957702
Q4(620,0)=6190
Q4(620,1)=778.159266844
Q4(621,0)=6200
Q4(621,1)=786.709005834
Q4(622,0)=6210
Q4(622,1)=795.165090649
Q4(623,0)=6220
Q4(623,1)=803.526449135
Q4(624,0)=6230
Q4(624,1)=811.792021153
Q4(625,0)=6240
Q4(625,1)=819.960758706
Q4(626,0)=6250
Q4(626,1)=828.031626075
Q4(627,0)=6260
Q4(627,1)=836.003599952
Q4(628,0)=6270
Q4(628,1)=843.875669566
Q4(629,0)=6280
Q4(629,1)=851.646836813
Q4(630,0)=6290
Q4(630,1)=859.316116382
Q4(631,0)=6300
Q4(631,1)=866.882535882
Q4(632,0)=6310
Q4(632,1)=874.345135963
Q4(633,0)=6320
Q4(633,1)=881.702970438
Q4(634,0)=6330
Q4(634,1)=888.955106403
Q4(635,0)=6340
Q4(635,1)=896.100624356
Q4(636,0)=6350
Q4(636,1)=903.138618313
Q4(637,0)=6360
Q4(637,1)=910.068195924
Q4(638,0)=6370
Q4(638,1)=916.888478583
Q4(639,0)=6380
Q4(639,1)=923.598601545
Q4(640,0)=6390
Q4(640,1)=930.197714028
Q4(641,0)=6400
Q4(641,1)=936.684979327
Q4(642,0)=6410
Q4(642,1)=943.059574921
Q4(643,0)=6420
Q4(643,1)=949.320692569
Q4(644,0)=6430
Q4(644,1)=955.467538422
Q4(645,0)=6440
Q4(645,1)=961.499333117
Q4(646,0)=6450
Q4(646,1)=967.415311882
Q4(647,0)=6460
Q4(647,1)=973.214724625
Q4(648,0)=6470
Q4(648,1)=978.896836036
Q4(649,0)=6480
Q4(649,1)=984.460925678
Q4(650,0)=6490
Q4(650,1)=989.906288076
Q4(651,0)=6500
Q4(651,1)=995.232232811
Q4(652,0)=6510
Q4(652,1)=1000.4380846
Q4(653,0)=6520
Q4(653,1)=1005.5231834
Q4(654,0)=6530
Q4(654,1)=1010.48688446
Q4(655,0)=6540
Q4(655,1)=1015.32855843
Q4(656,0)=6550
Q4(656,1)=1020.04759143
Q4(657,0)=6560
Q4(657,1)=1024.64338514
Q4(658,0)=6570
Q4(658,1)=1029.11535685
Q4(659,0)=6580
Q4(659,1)=1033.46293956
Q4(660,0)=6590
Q4(660,1)=1037.68558204
Q4(661,0)=6600
Q4(661,1)=1041.78274889
Q4(662,0)=6610
Q4(662,1)=1045.75392063
Q4(663,0)=6620
Q4(663,1)=1049.59859376
Q4(664,0)=6630
Q4(664,1)=1053.31628081
Q4(665,0)=6640
Q4(665,1)=1056.90651041
Q4(666,0)=6650
Q4(666,1)=1060.36882736
Q4(667,0)=6660
Q4(667,1)=1063.70279266
Q4(668,0)=6670
Q4(668,1)=1066.9079836
Q4(669,0)=6680
Q4(669,1)=1069.98399379
Q4(670,0)=6690
Q4(670,1)=1072.93043322
Q4(671,0)=6700
Q4(671,1)=1075.74692832
Q4(672,0)=6710
Q4(672,1)=1078.43312198
Q4(673,0)=6720
Q4(673,1)=1080.9886736
Q4(674,0)=6730
Q4(674,1)=1083.41325919
Q4(675,0)=6740
Q4(675,1)=1085.70657131
Q4(676,0)=6750
Q4(676,1)=1087.8683192
Q4(677,0)=6760
Q4(677,1)=1089.89822877
Q4(678,0)=6770
Q4(678,1)=1091.79604265
Q4(679,0)=6780
Q4(679,1)=1093.56152022
Q4(680,0)=6790
Q4(680,1)=1095.19443762
Q4(681,0)=6800
Q4(681,1)=1096.69458781
Q4(682,0)=6810
Q4(682,1)=1098.0617806
Q4(683,0)=6820
Q4(683,1)=1099.29584264
Q4(684,0)=6830
Q4(684,1)=1100.39661745
Q4(685,0)=6840
Q4(685,1)=1101.36396548
Q4(686,0)=6850
Q4(686,1)=1102.19776407
Q4(687,0)=6860
Q4(687,1)=1102.8979075
Q4(688,0)=6870
Q4(688,1)=1103.464307
Q4(689,0)=6880
Q4(689,1)=1103.89689075
Q4(690,0)=6890
Q4(690,1)=1104.19560392
Q4(691,0)=6900
Q4(691,1)=1104.36040863
Q4(692,0)=6910
Q4(692,1)=1104.39128397
Q4(693,0)=6920
Q4(693,1)=1104.28822604
Q4(694,0)=6930
Q4(694,1)=1104.0512479
Q4(695,0)=6940
Q4(695,1)=1103.6803796
Q4(696,0)=6950
Q4(696,1)=1103.17566816
Q4(697,0)=6960
Q4(697,1)=1102.53717757
Q4(698,0)=6970
Q4(698,1)=1101.76498879
Q4(699,0)=6980
Q4(699,1)=1100.85919973
Q4(700,0)=6990
Q4(700,1)=1100.60509227
Q4(701,0)=7000
Q4(701,1)=1100.43372284
Q4(702,0)=7010
Q4(702,1)=1100.12892191
Q4(703,0)=7020
Q4(703,1)=1099.69072813
Q4(704,0)=7030
Q4(704,1)=1099.11919707
Q4(705,0)=7040
Q4(705,1)=1098.41440118
Q4(706,0)=7050
Q4(706,1)=1097.57642983
Q4(707,0)=7060
Q4(707,1)=1096.60538926
Q4(708,0)=7070
Q4(708,1)=1095.5014026
Q4(709,0)=7080
Q4(709,1)=1094.26460981
Q4(710,0)=7090
Q4(710,1)=1092.89516772
Q4(711,0)=7100
Q4(711,1)=1091.39324994
Q4(712,0)=7110
Q4(712,1)=1089.75904693
Q4(713,0)=7120
Q4(713,1)=1087.99276586
Q4(714,0)=7130
Q4(714,1)=1086.0946307
Q4(715,0)=7140
Q4(715,1)=1084.0648821
Q4(716,0)=7150
Q4(716,1)=1081.90377743
Q4(717,0)=7160
Q4(717,1)=1079.61159068
Q4(718,0)=7170
Q4(718,1)=1077.18861249
Q4(719,0)=7180
Q4(719,1)=1074.63515006
Q4(720,0)=7190
Q4(720,1)=1071.95152715
Q4(721,0)=7200
Q4(721,1)=1069.13808403
Q4(722,0)=7210
Q4(722,1)=1066.1951774
Q4(723,0)=7220
Q4(723,1)=1063.12318039
Q4(724,0)=7230
Q4(724,1)=1059.92248252
Q4(725,0)=7240
Q4(725,1)=1056.5934896
Q4(726,0)=7250
Q4(726,1)=1053.1366237
Q4(727,0)=7260
Q4(727,1)=1049.55232314
Q4(728,0)=7270
Q4(728,1)=1045.84104236
Q4(729,0)=7280
Q4(729,1)=1042.00325192
Q4(730,0)=7290
Q4(730,1)=1038.03943842
Q4(731,0)=7300
Q4(731,1)=1033.95010443
Q4(732,0)=7310
Q4(732,1)=48.0561188355
Q4(733,0)=7320
Q4(733,1)=48.0561188355
Q4(734,0)=7330
Q4(734,1)=48.0561188355
Q4(735,0)=7340
Q4(735,1)=48.0561188355
Q4(736,0)=7350
Q4(736,1)=48.0561188355
Q4(737,0)=7360
Q4(737,1)=48.0561188355
Q4(738,0)=7370
Q4(738,1)=48.0561188355
Q4(739,0)=7380
Q4(739,1)=48.0561188355
Q4(740,0)=7390
Q4(740,1)=48.0561188355
Q4(741,0)=7400
Q4(741,1)=48.0561188355
Q4(742,0)=7410
Q4(742,1)=48.0561188355
Q4(743,0)=7420
Q4(743,1)=48.0561188355
Q4(744,0)=7430
Q4(744,1)=48.0561188355
Q4(745,0)=7440
Q4(745,1)=48.0561188355
Q4(746,0)=7450
Q4(746,1)=48.0561188355
Q4(747,0)=7460
Q4(747,1)=48.0561188355
Q4(748,0)=7470
Q4(748,1)=48.0561188355
Q4(749,0)=7480
Q4(749,1)=48.0561188355
Q4(750,0)=7490
Q4(750,1)=48.0561188355
Q4(751,0)=7500
Q4(751,1)=48.0561188355
Q4(752,0)=7510
Q4(752,1)=48.0561188355
Q4(753,0)=7520
Q4(753,1)=48.0561188355
Q4(754,0)=7530
Q4(754,1)=48.0561188355
Q4(755,0)=7540
Q4(755,1)=48.0561188355
Q4(756,0)=7550
Q4(756,1)=48.0561188355
Q4(757,0)=7560
Q4(757,1)=48.0561188355
Q4(758,0)=7570
Q4(758,1)=48.0561188355
Q4(759,0)=7580
Q4(759,1)=48.0561188355
Q4(760,0)=7590
Q4(760,1)=48.0561188355
Q4(761,0)=7600
Q4(761,1)=48.0561188355
Q4(762,0)=7610
Q4(762,1)=48.0561188355
Q4(763,0)=7620
Q4(763,1)=48.0561188355
Q4(764,0)=7630
Q4(764,1)=48.0561188355
Q4(765,0)=7640
Q4(765,1)=48.0561188355
Q4(766,0)=7650
Q4(766,1)=48.0561188355
Q4(767,0)=7660
Q4(767,1)=48.0561188355
Q4(768,0)=7670
Q4(768,1)=48.0561188355
Q4(769,0)=7680
Q4(769,1)=48.0561188355
Q4(770,0)=7690
Q4(770,1)=48.0561188355
Q4(771,0)=7700
Q4(771,1)=48.0561188355
Q4(772,0)=7710
Q4(772,1)=48.0561188355
Q4(773,0)=7720
Q4(773,1)=48.0561188355
Q4(774,0)=7730
Q4(774,1)=48.0561188355
Q4(775,0)=7740
Q4(775,1)=48.0561188355
Q4(776,0)=7750
Q4(776,1)=48.0561188355
Q4(777,0)=7760
Q4(777,1)=48.0561188355
Q4(778,0)=7770
Q4(778,1)=48.0561188355
Q4(779,0)=7780
Q4(779,1)=48.0561188355
Q4(780,0)=7790
Q4(780,1)=48.0561188355
Q4(781,0)=7800
Q4(781,1)=48.0561188355
Q4(782,0)=7810
Q4(782,1)=48.0561188355
Q4(783,0)=7820
Q4(783,1)=48.0561188355
Q4(784,0)=7830
Q4(784,1)=48.0561188355
Q4(785,0)=7840
Q4(785,1)=48.0561188355
Q4(786,0)=7850
Q4(786,1)=48.0561188355
Q4(787,0)=7860
Q4(787,1)=48.0561188355
Q4(788,0)=7870
Q4(788,1)=48.0561188355
Q4(789,0)=7880
Q4(789,1)=48.0561188355
Q4(790,0)=7890
Q4(790,1)=48.0561188355
Q4(791,0)=7900
Q4(791,1)=48.0561188355
Q4(792,0)=7910
Q4(792,1)=48.0561188355
Q4(793,0)=7920
Q4(793,1)=48.0561188355
Q4(794,0)=7930
Q4(794,1)=48.0561188355
Q4(795,0)=7940
Q4(795,1)=48.0561188355
Q4(796,0)=7950
Q4(796,1)=48.0561188355
Q4(797,0)=7960
Q4(797,1)=48.0561188355
Q4(798,0)=7970
Q4(798,1)=48.0561188355
Q4(799,0)=7980
Q4(799,1)=48.0561188355
Q4(800,0)=7990
Q4(800,1)=48.0561188355
Q4(801,0)=8000
Q4(801,1)=48.0561188355
Q4(802,0)=8010
Q4(802,1)=48.0561188355
Q4(803,0)=8020
Q4(803,1)=48.0561188355
Q4(804,0)=8030
Q4(804,1)=48.0561188355
Q4(805,0)=8040
Q4(805,1)=48.0561188355
Q4(806,0)=8050
Q4(806,1)=48.0561188355
Q4(807,0)=8060
Q4(807,1)=48.0561188355
Q4(808,0)=8070
Q4(808,1)=48.0561188355
Q4(809,0)=8080
Q4(809,1)=48.0561188355
Q4(810,0)=8090
Q4(810,1)=48.0561188355
Q4(811,0)=8100
Q4(811,1)=48.0561188355
Q4(812,0)=8110
Q4(812,1)=48.0561188355
Q4(813,0)=8120
Q4(813,1)=48.0561188355
Q4(814,0)=8130
Q4(814,1)=48.0561188355
Q4(815,0)=8140
Q4(815,1)=48.0561188355
Q4(816,0)=8150
Q4(816,1)=48.0561188355
Q4(817,0)=8160
Q4(817,1)=48.0561188355
Q4(818,0)=8170
Q4(818,1)=48.0561188355
Q4(819,0)=8180
Q4(819,1)=48.0561188355
Q4(820,0)=8190
Q4(820,1)=48.0561188355
Q4(821,0)=8200
Q4(821,1)=48.0561188355
Q4(822,0)=8210
Q4(822,1)=48.0561188355
Q4(823,0)=8220
Q4(823,1)=48.0561188355
Q4(824,0)=8230
Q4(824,1)=48.0561188355
Q4(825,0)=8240
Q4(825,1)=48.0561188355
Q4(826,0)=8250
Q4(826,1)=48.0561188355
Q4(827,0)=8260
Q4(827,1)=48.0561188355
Q4(828,0)=8270
Q4(828,1)=48.0561188355
Q4(829,0)=8280
Q4(829,1)=48.0561188355
Q4(830,0)=8290
Q4(830,1)=48.0561188355
Q4(831,0)=8300
Q4(831,1)=48.0561188355
Q4(832,0)=8310
Q4(832,1)=48.0561188355
Q4(833,0)=8320
Q4(833,1)=48.0561188355
Q4(834,0)=8330
Q4(834,1)=48.0561188355
Q4(835,0)=8340
Q4(835,1)=48.0561188355
Q4(836,0)=8350
Q4(836,1)=48.0561188355
Q4(837,0)=8360
Q4(837,1)=48.0561188355
Q4(838,0)=8370
Q4(838,1)=48.0561188355
Q4(839,0)=8380
Q4(839,1)=48.0561188355
Q4(840,0)=8390
Q4(840,1)=48.0561188355
Q4(841,0)=8400
Q4(841,1)=48.0561188355
Q4(842,0)=8410
Q4(842,1)=48.0561188355
Q4(843,0)=8420
Q4(843,1)=48.0561188355
Q4(844,0)=8430
Q4(844,1)=48.0561188355
Q4(845,0)=8440
Q4(845,1)=48.0561188355
Q4(846,0)=8450
Q4(846,1)=48.0561188355
Q4(847,0)=8460
Q4(847,1)=48.0561188355
Q4(848,0)=8470
Q4(848,1)=48.0561188355
Q4(849,0)=8480
Q4(849,1)=48.0561188355
Q4(850,0)=8490
Q4(850,1)=48.0561188355
Q4(851,0)=8500
Q4(851,1)=48.0561188355
Q4(852,0)=8510
Q4(852,1)=48.0561188355
Q4(853,0)=8520
Q4(853,1)=48.0561188355
Q4(854,0)=8530
Q4(854,1)=48.0561188355
Q4(855,0)=8540
Q4(855,1)=48.0561188355
Q4(856,0)=8550
Q4(856,1)=48.0561188355
Q4(857,0)=8560
Q4(857,1)=48.0561188355
Q4(858,0)=8570
Q4(858,1)=48.0561188355
Q4(859,0)=8580
Q4(859,1)=48.0561188355
Q4(860,0)=8590
Q4(860,1)=48.0561188355
Q4(861,0)=8600
Q4(861,1)=48.0561188355
Q4(862,0)=8610
Q4(862,1)=48.0561188355
Q4(863,0)=8620
Q4(863,1)=48.0561188355
Q4(864,0)=8630
Q4(864,1)=48.0561188355
Q4(865,0)=8640
Q4(865,1)=48.0561188355
Q4(866,0)=8650
Q4(866,1)=48.0561188355
Q4(867,0)=8660
Q4(867,1)=48.0561188355
Q4(868,0)=8670
Q4(868,1)=48.0561188355
Q4(869,0)=8680
Q4(869,1)=48.0561188355
Q4(870,0)=8690
Q4(870,1)=48.0561188355
Q4(871,0)=8700
Q4(871,1)=48.0561188355
Q4(872,0)=8710
Q4(872,1)=48.0561188355
Q4(873,0)=8720
Q4(873,1)=48.0561188355
Q4(874,0)=8730
Q4(874,1)=48.0561188355
Q4(875,0)=8740
Q4(875,1)=48.0561188355
Q4(876,0)=8750
Q4(876,1)=48.0561188355
Q4(877,0)=8760
Q4(877,1)=48.0561188355
Q4(878,0)=8770
Q4(878,1)=48.0561188355
Q4(879,0)=8780
Q4(879,1)=48.0561188355
Q4(880,0)=8790
Q4(880,1)=48.0561188355
Q4(881,0)=8800
Q4(881,1)=48.0561188355
Q4(882,0)=8810
Q4(882,1)=48.0561188355
Q4(883,0)=8820
Q4(883,1)=48.0561188355
Q4(884,0)=8830
Q4(884,1)=48.0561188355
Q4(885,0)=8840
Q4(885,1)=48.0561188355
Q4(886,0)=8850
Q4(886,1)=48.0561188355
Q4(887,0)=8860
Q4(887,1)=48.0561188355
Q4(888,0)=8870
Q4(888,1)=48.0561188355
Q4(889,0)=8880
Q4(889,1)=48.0561188355
Q4(890,0)=8890
Q4(890,1)=48.0561188355
Q4(891,0)=8900
Q4(891,1)=48.0561188355
Q4(892,0)=8910
Q4(892,1)=48.0561188355
Q4(893,0)=8920
Q4(893,1)=48.0561188355
Q4(894,0)=8930
Q4(894,1)=48.0561188355
Q4(895,0)=8940
Q4(895,1)=48.0561188355
Q4(896,0)=8950
Q4(896,1)=48.0561188355
Q4(897,0)=8960
Q4(897,1)=48.0561188355
Q4(898,0)=8970
Q4(898,1)=48.0561188355
Q4(899,0)=8980
Q4(899,1)=48.0561188355
Q4(900,0)=8990
Q4(900,1)=48.0561188355
Q4(901,0)=9000
Q4(901,1)=48.0561188355
Q4(902,0)=9010
Q4(902,1)=48.0561188355
Q4(903,0)=9020
Q4(903,1)=48.0561188355
Q4(904,0)=9030
Q4(904,1)=48.0561188355
Q4(905,0)=9040
Q4(905,1)=48.0561188355
Q4(906,0)=9050
Q4(906,1)=48.0561188355
Q4(907,0)=9060
Q4(907,1)=48.0561188355
Q4(908,0)=9070
Q4(908,1)=48.0561188355
Q4(909,0)=9080
Q4(909,1)=48.0561188355
Q4(910,0)=9090
Q4(910,1)=48.0561188355
Q4(911,0)=9100
Q4(911,1)=48.0561188355
Q4(912,0)=9110
Q4(912,1)=48.0561188355
Q4(913,0)=9120
Q4(913,1)=48.0561188355
Q4(914,0)=9130
Q4(914,1)=48.0561188355
Q4(915,0)=9140
Q4(915,1)=48.0561188355
Q4(916,0)=9150
Q4(916,1)=48.0561188355
Q4(917,0)=9160
Q4(917,1)=48.0561188355
Q4(918,0)=9170
Q4(918,1)=48.0561188355
Q4(919,0)=9180
Q4(919,1)=48.0561188355
Q4(920,0)=9190
Q4(920,1)=48.0561188355
Q4(921,0)=9200
Q4(921,1)=48.0561188355
Q4(922,0)=9210
Q4(922,1)=48.0561188355
Q4(923,0)=9220
Q4(923,1)=48.0561188355
Q4(924,0)=9230
Q4(924,1)=48.0561188355
Q4(925,0)=9240
Q4(925,1)=48.0561188355
Q4(926,0)=9250
Q4(926,1)=48.0561188355
Q4(927,0)=9260
Q4(927,1)=48.0561188355
Q4(928,0)=9270
Q4(928,1)=48.0561188355
Q4(929,0)=9280
Q4(929,1)=48.0561188355
Q4(930,0)=9290
Q4(930,1)=48.0561188355
Q4(931,0)=9300
Q4(931,1)=48.0561188355
Q4(932,0)=9310
Q4(932,1)=48.0561188355
Q4(933,0)=9320
Q4(933,1)=48.0561188355
Q4(934,0)=9330
Q4(934,1)=48.0561188355
Q4(935,0)=9340
Q4(935,1)=48.0561188355
Q4(936,0)=9350
Q4(936,1)=48.0561188355
Q4(937,0)=9360
Q4(937,1)=48.0561188355
Q4(938,0)=9370
Q4(938,1)=48.0561188355
Q4(939,0)=9380
Q4(939,1)=48.0561188355
Q4(940,0)=9390
Q4(940,1)=48.0561188355
Q4(941,0)=9400
Q4(941,1)=48.0561188355
Q4(942,0)=9410
Q4(942,1)=48.0561188355
Q4(943,0)=9420
Q4(943,1)=48.0561188355
Q4(944,0)=9430
Q4(944,1)=48.0561188355
Q4(945,0)=9440
Q4(945,1)=48.0561188355
Q4(946,0)=9450
Q4(946,1)=48.0561188355
Q4(947,0)=9460
Q4(947,1)=48.0561188355
Q4(948,0)=9470
Q4(948,1)=48.0561188355
Q4(949,0)=9480
Q4(949,1)=48.0561188355
Q4(950,0)=9490
Q4(950,1)=48.0561188355
Q4(951,0)=9500
Q4(951,1)=48.0561188355
Q4(952,0)=9510
Q4(952,1)=48.0561188355
Q4(953,0)=9520
Q4(953,1)=48.0561188355
Q4(954,0)=9530
Q4(954,1)=48.0561188355
Q4(955,0)=9540
Q4(955,1)=48.0561188355
Q4(956,0)=9550
Q4(956,1)=48.0561188355
Q4(957,0)=9560
Q4(957,1)=48.0561188355
Q4(958,0)=9570
Q4(958,1)=48.0561188355
Q4(959,0)=9580
Q4(959,1)=48.0561188355
Q4(960,0)=9590
Q4(960,1)=48.0561188355
Q4(961,0)=9600
Q4(961,1)=48.0561188355
Q4(962,0)=9610
Q4(962,1)=48.0561188355
Q4(963,0)=9620
Q4(963,1)=48.0561188355
Q4(964,0)=9630
Q4(964,1)=48.0561188355
Q4(965,0)=9640
Q4(965,1)=48.0561188355
Q4(966,0)=9650
Q4(966,1)=48.0561188355
Q4(967,0)=9660
Q4(967,1)=48.0561188355
Q4(968,0)=9670
Q4(968,1)=48.0561188355
Q4(969,0)=9680
Q4(969,1)=48.0561188355
Q4(970,0)=9690
Q4(970,1)=48.0561188355
Q4(971,0)=9700
Q4(971,1)=48.0561188355
Q4(972,0)=9710
Q4(972,1)=48.0561188355
Q4(973,0)=9720
Q4(973,1)=48.0561188355
Q4(974,0)=9730
Q4(974,1)=48.0561188355
Q4(975,0)=9740
Q4(975,1)=48.0561188355
Q4(976,0)=9750
Q4(976,1)=48.0561188355
Q4(977,0)=9760
Q4(977,1)=48.0561188355
Q4(978,0)=9770
Q4(978,1)=48.0561188355
Q4(979,0)=9780
Q4(979,1)=48.8412858804
Q4(980,0)=9790
Q4(980,1)=49.8425446189
Q4(981,0)=9800
Q4(981,1)=50.8435768554
Q4(982,0)=9810
Q4(982,1)=51.8442556688
Q4(983,0)=9820
Q4(983,1)=52.8444541824
Q4(984,0)=9830
Q4(984,1)=53.8440455804
Q4(985,0)=9840
Q4(985,1)=54.8429031243
Q4(986,0)=9850
Q4(986,1)=55.8409001684
Q4(987,0)=9860
Q4(987,1)=56.837910176
Q4(988,0)=9870
Q4(988,1)=57.8338067358
Q4(989,0)=9880
Q4(989,1)=58.8284635776
Q4(990,0)=9890
Q4(990,1)=59.8217545884
Q4(991,0)=9900
Q4(991,1)=60.8135538281
Q4(992,0)=9910
Q4(992,1)=61.8037355462
Q4(993,0)=9920
Q4(993,1)=62.7921741969
Q4(994,0)=9930
Q4(994,1)=63.7787444556
Q4(995,0)=9940
Q4(995,1)=64.7633212346
Q4(996,0)=9950
Q4(996,1)=65.7457796989
Q4(997,0)=9960
Q4(997,1)=66.7259952821
Q4(998,0)=9970
Q4(998,1)=67.7038437021
Q4(999,0)=9980
Q4(999,1)=68.679200977
Q4(1000,0)=9990
Q4(1000,1)=69.6519434408
Q4(1001,0)=10000
Q4(1001,1)=70.621947759
Q4(1002,0)=10010
Q4(1002,1)=71.5890909443
Q4(1003,0)=10020
Q4(1003,1)=72.553250372
Q4(1004,0)=10030
Q4(1004,1)=73.5143037958
Q4(1005,0)=10040
Q4(1005,1)=74.4721293634
Q4(1006,0)=10050
Q4(1006,1)=75.4266056316
Q4(1007,0)=10060
Q4(1007,1)=76.3776115818
Q4(1008,0)=10070
Q4(1008,1)=77.3250266354
Q4(1009,0)=10080
Q4(1009,1)=78.2687306693
Q4(1010,0)=10090
Q4(1010,1)=79.2086040307
Q4(1011,0)=10100
Q4(1011,1)=80.1445275526
Q4(1012,0)=10110
Q4(1012,1)=81.0763825688
Q4(1013,0)=10120
Q4(1013,1)=82.0040509289
Q4(1014,0)=10130
Q4(1014,1)=82.9274150134
Q4(1015,0)=10140
Q4(1015,1)=83.8463577484
Q4(1016,0)=10150
Q4(1016,1)=84.7607626208
Q4(1017,0)=10160
Q4(1017,1)=85.6705136926
Q4(1018,0)=10170
Q4(1018,1)=86.5754956161
Q4(1019,0)=10180
Q4(1019,1)=87.4755936482
Q4(1020,0)=10190
Q4(1020,1)=88.370693665
Q4(1021,0)=10200
Q4(1021,1)=89.2606821762
Q4(1022,0)=10210
Q4(1022,1)=90.1454463398
Q4(1023,0)=10220
Q4(1023,1)=91.0248739761
Q4(1024,0)=10230
Q4(1024,1)=91.898853582
Q4(1025,0)=10240
Q4(1025,1)=92.7672743452
Q4(1026,0)=10250
Q4(1026,1)=93.6300261582
Q4(1027,0)=10260
Q4(1027,1)=94.4869996322
Q4(1028,0)=10270
Q4(1028,1)=95.3380861111
Q4(1029,0)=10280
Q4(1029,1)=96.1831776852
Q4(1030,0)=10290
Q4(1030,1)=97.022167205
Q4(1031,0)=10300
Q4(1031,1)=97.8549482946
Q4(1032,0)=10310
Q4(1032,1)=98.6814153651
Q4(1033,0)=10320
Q4(1033,1)=99.5014636284
Q4(1034,0)=10330
Q4(1034,1)=100.31498911
Q4(1035,0)=10340
Q4(1035,1)=101.121888663
Q4(1036,0)=10350
Q4(1036,1)=101.92205998
Q4(1037,0)=10360
Q4(1037,1)=102.715401607
Q4(1038,0)=10370
Q4(1038,1)=103.501812955
Q4(1039,0)=10380
Q4(1039,1)=104.281194316
Q4(1040,0)=10390
Q4(1040,1)=105.05344687
Q4(1041,0)=10400
Q4(1041,1)=105.818472705
Q4(1042,0)=10410
Q4(1042,1)=106.576174821
Q4(1043,0)=10420
Q4(1043,1)=107.326457149
Q4(1044,0)=10430
Q4(1044,1)=108.06922456
Q4(1045,0)=10440
Q4(1045,1)=108.80438288
Q4(1046,0)=10450
Q4(1046,1)=109.531838896
Q4(1047,0)=10460
Q4(1047,1)=110.251500374
Q4(1048,0)=10470
Q4(1048,1)=110.963276068
Q4(1049,0)=10480
Q4(1049,1)=111.667075731
Q4(1050,0)=10490
Q4(1050,1)=112.362810129
Q4(1051,0)=10500
Q4(1051,1)=113.050391048
Q4(1052,0)=10510
Q4(1052,1)=113.729731311
Q4(1053,0)=10520
Q4(1053,1)=114.400744782
Q4(1054,0)=10530
Q4(1054,1)=115.063346385
Q4(1055,0)=10540
Q4(1055,1)=115.717452107
Q4(1056,0)=10550
Q4(1056,1)=116.362979014
Q4(1057,0)=10560
Q4(1057,1)=116.999845259
Q4(1058,0)=10570
Q4(1058,1)=117.627970095
Q4(1059,0)=10580
Q4(1059,1)=118.247273879
Q4(1060,0)=10590
Q4(1060,1)=118.857678091
Q4(1061,0)=10600
Q4(1061,1)=119.459105338
Q4(1062,0)=10610
Q4(1062,1)=120.051479363
Q4(1063,0)=10620
Q4(1063,1)=120.63472506
Q4(1064,0)=10630
Q4(1064,1)=121.208768478
Q4(1065,0)=10640
Q4(1065,1)=121.773536835
Q4(1066,0)=10650
Q4(1066,1)=122.328958522
Q4(1067,0)=10660
Q4(1067,1)=122.874963118
Q4(1068,0)=10670
Q4(1068,1)=123.411481395
Q4(1069,0)=10680
Q4(1069,1)=123.938445327
Q4(1070,0)=10690
Q4(1070,1)=124.4557881
Q4(1071,0)=10700
Q4(1071,1)=124.96344412
Q4(1072,0)=10710
Q4(1072,1)=125.461349021
Q4(1073,0)=10720
Q4(1073,1)=125.949439673
Q4(1074,0)=10730
Q4(1074,1)=126.427654191
Q4(1075,0)=10740
Q4(1075,1)=126.895931942
Q4(1076,0)=10750
Q4(1076,1)=127.354213554
Q4(1077,0)=10760
Q4(1077,1)=127.802440919
Q4(1078,0)=10770
Q4(1078,1)=128.240557207
Q4(1079,0)=10780
Q4(1079,1)=128.66850687
Q4(1080,0)=10790
Q4(1080,1)=129.086235647
Q4(1081,0)=10800
Q4(1081,1)=129.493690574
Q4(1082,0)=10810
Q4(1082,1)=129.890819989
Q4(1083,0)=10820
Q4(1083,1)=130.277573541
Q4(1084,0)=10830
Q4(1084,1)=130.653902193
Q4(1085,0)=10840
Q4(1085,1)=131.01975823
Q4(1086,0)=10850
Q4(1086,1)=131.375095264
Q4(1087,0)=10860
Q4(1087,1)=131.719868243
Q4(1088,0)=10870
Q4(1088,1)=132.054033453
Q4(1089,0)=10880
Q4(1089,1)=132.377548524
Q4(1090,0)=10890
Q4(1090,1)=132.690372438
Q4(1091,0)=10900
Q4(1091,1)=132.992465532
Q4(1092,0)=10910
Q4(1092,1)=133.283789502
Q4(1093,0)=10920
Q4(1093,1)=133.564307414
Q4(1094,0)=10930
Q4(1094,1)=133.833983698
Q4(1095,0)=10940
Q4(1095,1)=134.092784163
Q4(1096,0)=10950
Q4(1096,1)=134.340675995
Q4(1097,0)=10960
Q4(1097,1)=134.577627764
Q4(1098,0)=10970
Q4(1098,1)=134.803609427
Q4(1099,0)=10980
Q4(1099,1)=135.018592332
Q4(1100,0)=10990
Q4(1100,1)=135.22254922
Q4(1101,0)=11000
Q4(1101,1)=135.415454231
Q4(1102,0)=11010
Q4(1102,1)=135.597282908
Q4(1103,0)=11020
Q4(1103,1)=135.768012197
Q4(1104,0)=11030
Q4(1104,1)=135.927620449
Q4(1105,0)=11040
Q4(1105,1)=136.076087429
Q4(1106,0)=11050
Q4(1106,1)=136.213394312
Q4(1107,0)=11060
Q4(1107,1)=136.339523689
Q4(1108,0)=11070
Q4(1108,1)=136.454459568
Q4(1109,0)=11080
Q4(1109,1)=136.558187377
Q4(1110,0)=11090
Q4(1110,1)=136.650693963
Q4(1111,0)=11100
Q4(1111,1)=136.731967598
Q4(1112,0)=11110
Q4(1112,1)=136.801997976
Q4(1113,0)=11120
Q4(1113,1)=136.860776219
Q4(1114,0)=11130
Q4(1114,1)=136.908294875
Q4(1115,0)=11140
Q4(1115,1)=136.944547917
Q4(1116,0)=11150
Q4(1116,1)=136.969530751
Q4(1117,0)=11160
Q4(1117,1)=136.983240207
*DIM,Q5,TABLE,1117,1,1,TIME
Q5(1,0)=0
Q5(1,1)=136.983240207
Q5(2,0)=10
Q5(2,1)=136.985674549
Q5(3,0)=20
Q5(3,1)=136.976833466
Q5(4,0)=30
Q5(4,1)=136.956718081
Q5(5,0)=40
Q5(5,1)=136.925330943
Q5(6,0)=50
Q5(6,1)=136.882676033
Q5(7,0)=60
Q5(7,1)=136.828758758
Q5(8,0)=70
Q5(8,1)=136.763585955
Q5(9,0)=80
Q5(9,1)=136.687165887
Q5(10,0)=90
Q5(10,1)=136.599508243
Q5(11,0)=100
Q5(11,1)=136.500624138
Q5(12,0)=110
Q5(12,1)=136.390526108
Q5(13,0)=120
Q5(13,1)=136.269228114
Q5(14,0)=130
Q5(14,1)=136.136745535
Q5(15,0)=140
Q5(15,1)=135.993095169
Q5(16,0)=150
Q5(16,1)=135.838295228
Q5(17,0)=160
Q5(17,1)=135.67236534
Q5(18,0)=170
Q5(18,1)=135.495326543
Q5(19,0)=180
Q5(19,1)=135.307201285
Q5(20,0)=190
Q5(20,1)=135.108013418
Q5(21,0)=200
Q5(21,1)=134.897788196
Q5(22,0)=210
Q5(22,1)=134.676552275
Q5(23,0)=220
Q5(23,1)=134.444333705
Q5(24,0)=230
Q5(24,1)=134.201161929
Q5(25,0)=240
Q5(25,1)=133.947067779
Q5(26,0)=250
Q5(26,1)=133.682083472
Q5(27,0)=260
Q5(27,1)=133.406242605
Q5(28,0)=270
Q5(28,1)=133.119580152
Q5(29,0)=280
Q5(29,1)=132.82213246
Q5(30,0)=290
Q5(30,1)=132.513937241
Q5(31,0)=300
Q5(31,1)=132.195033573
Q5(32,0)=310
Q5(32,1)=131.865461888
Q5(33,0)=320
Q5(33,1)=131.525263974
Q5(34,0)=330
Q5(34,1)=131.174482965
Q5(35,0)=340
Q5(35,1)=130.813163336
Q5(36,0)=350
Q5(36,1)=130.441350899
Q5(37,0)=360
Q5(37,1)=130.059092796
Q5(38,0)=370
Q5(38,1)=129.666437495
Q5(39,0)=380
Q5(39,1)=129.263434779
Q5(40,0)=390
Q5(40,1)=128.850135747
Q5(41,0)=400
Q5(41,1)=128.4265928
Q5(42,0)=410
Q5(42,1)=127.992859639
Q5(43,0)=420
Q5(43,1)=127.548991258
Q5(44,0)=430
Q5(44,1)=127.095043936
Q5(45,0)=440
Q5(45,1)=126.631075227
Q5(46,0)=450
Q5(46,1)=126.15714396
Q5(47,0)=460
Q5(47,1)=125.673310224
Q5(48,0)=470
Q5(48,1)=125.179635365
Q5(49,0)=480
Q5(49,1)=124.676181976
Q5(50,0)=490
Q5(50,1)=124.163013889
Q5(51,0)=500
Q5(51,1)=123.640196171
Q5(52,0)=510
Q5(52,1)=123.107795109
Q5(53,0)=520
Q5(53,1)=122.565878207
Q5(54,0)=530
Q5(54,1)=122.014514174
Q5(55,0)=540
Q5(55,1)=121.453772919
Q5(56,0)=550
Q5(56,1)=120.883725537
Q5(57,0)=560
Q5(57,1)=120.304444306
Q5(58,0)=570
Q5(58,1)=119.716002673
Q5(59,0)=580
Q5(59,1)=119.118475247
Q5(60,0)=590
Q5(60,1)=118.511937788
Q5(61,0)=600
Q5(61,1)=117.8964672
Q5(62,0)=610
Q5(62,1)=117.272141519
Q5(63,0)=620
Q5(63,1)=116.639039903
Q5(64,0)=630
Q5(64,1)=115.997242623
Q5(65,0)=640
Q5(65,1)=115.346831054
Q5(66,0)=650
Q5(66,1)=114.68788766
Q5(67,0)=660
Q5(67,1)=114.020495991
Q5(68,0)=670
Q5(68,1)=113.344740665
Q5(69,0)=680
Q5(69,1)=112.660707361
Q5(70,0)=690
Q5(70,1)=111.968482808
Q5(71,0)=700
Q5(71,1)=111.268154774
Q5(72,0)=710
Q5(72,1)=110.559812054
Q5(73,0)=720
Q5(73,1)=109.843544459
Q5(74,0)=730
Q5(74,1)=109.119442804
Q5(75,0)=740
Q5(75,1)=108.387598899
Q5(76,0)=750
Q5(76,1)=107.648105536
Q5(77,0)=760
Q5(77,1)=106.901056473
Q5(78,0)=770
Q5(78,1)=106.146546431
Q5(79,0)=780
Q5(79,1)=105.384671075
Q5(80,0)=790
Q5(80,1)=104.615527001
Q5(81,0)=800
Q5(81,1)=103.839211732
Q5(82,0)=810
Q5(82,1)=103.055823696
Q5(83,0)=820
Q5(83,1)=102.265462219
Q5(84,0)=830
Q5(84,1)=101.468227511
Q5(85,0)=840
Q5(85,1)=100.664220656
Q5(86,0)=850
Q5(86,1)=99.8535435916
Q5(87,0)=860
Q5(87,1)=99.0362991058
Q5(88,0)=870
Q5(88,1)=98.212590817
Q5(89,0)=880
Q5(89,1)=97.3825231634
Q5(90,0)=890
Q5(90,1)=96.5462013899
Q5(91,0)=900
Q5(91,1)=95.703731534
Q5(92,0)=910
Q5(92,1)=94.8552204131
Q5(93,0)=920
Q5(93,1)=94.0007756101
Q5(94,0)=930
Q5(94,1)=93.1405054607
Q5(95,0)=940
Q5(95,1)=92.2745190388
Q5(96,0)=950
Q5(96,1)=91.4029261435
Q5(97,0)=960
Q5(97,1)=90.5258372843
Q5(98,0)=970
Q5(98,1)=89.6433636678
Q5(99,0)=980
Q5(99,1)=88.7556171834
Q5(100,0)=990
Q5(100,1)=87.8627103888
Q5(101,0)=1000
Q5(101,1)=86.9647564961
Q5(102,0)=1010
Q5(102,1)=86.0618693574
Q5(103,0)=1020
Q5(103,1)=85.1541634501
Q5(104,0)=1030
Q5(104,1)=84.2417538629
Q5(105,0)=1040
Q5(105,1)=83.3247562805
Q5(106,0)=1050
Q5(106,1)=82.4032869696
Q5(107,0)=1060
Q5(107,1)=81.4774627638
Q5(108,0)=1070
Q5(108,1)=80.5474010486
Q5(109,0)=1080
Q5(109,1)=79.6132197472
Q5(110,0)=1090
Q5(110,1)=78.6750373049
Q5(111,0)=1100
Q5(111,1)=77.7329726743
Q5(112,0)=1110
Q5(112,1)=76.7871453002
Q5(113,0)=1120
Q5(113,1)=75.8376751046
Q5(114,0)=1130
Q5(114,1)=74.8846824713
Q5(115,0)=1140
Q5(115,1)=73.9282882308
Q5(116,0)=1150
Q5(116,1)=72.9686136446
Q5(117,0)=1160
Q5(117,1)=72.0057803906
Q5(118,0)=1170
Q5(118,1)=71.0399105467
Q5(119,0)=1180
Q5(119,1)=70.0711265762
Q5(120,0)=1190
Q5(120,1)=69.0995513116
Q5(121,0)=1200
Q5(121,1)=68.1253079394
Q5(122,0)=1210
Q5(122,1)=67.1485199845
Q5(123,0)=1220
Q5(123,1)=66.1693112944
Q5(124,0)=1230
Q5(124,1)=65.1878060233
Q5(125,0)=1240
Q5(125,1)=64.2041286168
Q5(126,0)=1250
Q5(126,1)=63.218403796
Q5(127,0)=1260
Q5(127,1)=62.2307565413
Q5(128,0)=1270
Q5(128,1)=61.241312077
Q5(129,0)=1280
Q5(129,1)=60.2501958554
Q5(130,0)=1290
Q5(130,1)=59.2575335405
Q5(131,0)=1300
Q5(131,1)=58.2634509925
Q5(132,0)=1310
Q5(132,1)=57.2680742517
Q5(133,0)=1320
Q5(133,1)=56.2715295223
Q5(134,0)=1330
Q5(134,1)=55.2739431569
Q5(135,0)=1340
Q5(135,1)=54.2754416398
Q5(136,0)=1350
Q5(136,1)=53.2761515716
Q5(137,0)=1360
Q5(137,1)=52.2761996527
Q5(138,0)=1370
Q5(138,1)=51.2757126677
Q5(139,0)=1380
Q5(139,1)=50.2748174687
Q5(140,0)=1390
Q5(140,1)=49.2736409598
Q5(141,0)=1400
Q5(141,1)=48.2723100807
Q5(142,0)=1410
Q5(142,1)=48.0561188355
Q5(143,0)=1420
Q5(143,1)=48.0561188355
Q5(144,0)=1430
Q5(144,1)=48.0561188355
Q5(145,0)=1440
Q5(145,1)=48.0561188355
Q5(146,0)=1450
Q5(146,1)=48.0561188355
Q5(147,0)=1460
Q5(147,1)=48.0561188355
Q5(148,0)=1470
Q5(148,1)=48.0561188355
Q5(149,0)=1480
Q5(149,1)=48.0561188355
Q5(150,0)=1490
Q5(150,1)=48.0561188355
Q5(151,0)=1500
Q5(151,1)=48.0561188355
Q5(152,0)=1510
Q5(152,1)=48.0561188355
Q5(153,0)=1520
Q5(153,1)=48.0561188355
Q5(154,0)=1530
Q5(154,1)=48.0561188355
Q5(155,0)=1540
Q5(155,1)=48.0561188355
Q5(156,0)=1550
Q5(156,1)=48.0561188355
Q5(157,0)=1560
Q5(157,1)=48.0561188355
Q5(158,0)=1570
Q5(158,1)=48.0561188355
Q5(159,0)=1580
Q5(159,1)=48.0561188355
Q5(160,0)=1590
Q5(160,1)=48.0561188355
Q5(161,0)=1600
Q5(161,1)=48.0561188355
Q5(162,0)=1610
Q5(162,1)=48.0561188355
Q5(163,0)=1620
Q5(163,1)=48.0561188355
Q5(164,0)=1630
Q5(164,1)=48.0561188355
Q5(165,0)=1640
Q5(165,1)=48.0561188355
Q5(166,0)=1650
Q5(166,1)=48.0561188355
Q5(167,0)=1660
Q5(167,1)=48.0561188355
Q5(168,0)=1670
Q5(168,1)=48.0561188355
Q5(169,0)=1680
Q5(169,1)=48.0561188355
Q5(170,0)=1690
Q5(170,1)=48.0561188355
Q5(171,0)=1700
Q5(171,1)=48.0561188355
Q5(172,0)=1710
Q5(172,1)=48.0561188355
Q5(173,0)=1720
Q5(173,1)=48.0561188355
Q5(174,0)=1730
Q5(174,1)=48.0561188355
Q5(175,0)=1740
Q5(175,1)=48.0561188355
Q5(176,0)=1750
Q5(176,1)=48.0561188355
Q5(177,0)=1760
Q5(177,1)=48.0561188355
Q5(178,0)=1770
Q5(178,1)=48.0561188355
Q5(179,0)=1780
Q5(179,1)=48.0561188355
Q5(180,0)=1790
Q5(180,1)=48.0561188355
Q5(181,0)=1800
Q5(181,1)=48.0561188355
Q5(182,0)=1810
Q5(182,1)=48.0561188355
Q5(183,0)=1820
Q5(183,1)=48.0561188355
Q5(184,0)=1830
Q5(184,1)=48.0561188355
Q5(185,0)=1840
Q5(185,1)=48.0561188355
Q5(186,0)=1850
Q5(186,1)=48.0561188355
Q5(187,0)=1860
Q5(187,1)=48.0561188355
Q5(188,0)=1870
Q5(188,1)=48.0561188355
Q5(189,0)=1880
Q5(189,1)=48.0561188355
Q5(190,0)=1890
Q5(190,1)=48.0561188355
Q5(191,0)=1900
Q5(191,1)=48.0561188355
Q5(192,0)=1910
Q5(192,1)=48.0561188355
Q5(193,0)=1920
Q5(193,1)=48.0561188355
Q5(194,0)=1930
Q5(194,1)=48.0561188355
Q5(195,0)=1940
Q5(195,1)=48.0561188355
Q5(196,0)=1950
Q5(196,1)=48.0561188355
Q5(197,0)=1960
Q5(197,1)=48.0561188355
Q5(198,0)=1970
Q5(198,1)=48.0561188355
Q5(199,0)=1980
Q5(199,1)=48.0561188355
Q5(200,0)=1990
Q5(200,1)=48.0561188355
Q5(201,0)=2000
Q5(201,1)=48.0561188355
Q5(202,0)=2010
Q5(202,1)=48.0561188355
Q5(203,0)=2020
Q5(203,1)=48.0561188355
Q5(204,0)=2030
Q5(204,1)=48.0561188355
Q5(205,0)=2040
Q5(205,1)=48.0561188355
Q5(206,0)=2050
Q5(206,1)=48.0561188355
Q5(207,0)=2060
Q5(207,1)=48.0561188355
Q5(208,0)=2070
Q5(208,1)=48.0561188355
Q5(209,0)=2080
Q5(209,1)=48.0561188355
Q5(210,0)=2090
Q5(210,1)=48.0561188355
Q5(211,0)=2100
Q5(211,1)=48.0561188355
Q5(212,0)=2110
Q5(212,1)=48.0561188355
Q5(213,0)=2120
Q5(213,1)=48.0561188355
Q5(214,0)=2130
Q5(214,1)=48.0561188355
Q5(215,0)=2140
Q5(215,1)=48.0561188355
Q5(216,0)=2150
Q5(216,1)=48.0561188355
Q5(217,0)=2160
Q5(217,1)=48.0561188355
Q5(218,0)=2170
Q5(218,1)=48.0561188355
Q5(219,0)=2180
Q5(219,1)=48.0561188355
Q5(220,0)=2190
Q5(220,1)=48.0561188355
Q5(221,0)=2200
Q5(221,1)=48.0561188355
Q5(222,0)=2210
Q5(222,1)=48.0561188355
Q5(223,0)=2220
Q5(223,1)=48.0561188355
Q5(224,0)=2230
Q5(224,1)=48.0561188355
Q5(225,0)=2240
Q5(225,1)=48.0561188355
Q5(226,0)=2250
Q5(226,1)=48.0561188355
Q5(227,0)=2260
Q5(227,1)=48.0561188355
Q5(228,0)=2270
Q5(228,1)=48.0561188355
Q5(229,0)=2280
Q5(229,1)=48.0561188355
Q5(230,0)=2290
Q5(230,1)=48.0561188355
Q5(231,0)=2300
Q5(231,1)=48.0561188355
Q5(232,0)=2310
Q5(232,1)=48.0561188355
Q5(233,0)=2320
Q5(233,1)=48.0561188355
Q5(234,0)=2330
Q5(234,1)=48.0561188355
Q5(235,0)=2340
Q5(235,1)=48.0561188355
Q5(236,0)=2350
Q5(236,1)=48.0561188355
Q5(237,0)=2360
Q5(237,1)=48.0561188355
Q5(238,0)=2370
Q5(238,1)=48.0561188355
Q5(239,0)=2380
Q5(239,1)=48.0561188355
Q5(240,0)=2390
Q5(240,1)=48.0561188355
Q5(241,0)=2400
Q5(241,1)=48.0561188355
Q5(242,0)=2410
Q5(242,1)=48.0561188355
Q5(243,0)=2420
Q5(243,1)=48.0561188355
Q5(244,0)=2430
Q5(244,1)=48.0561188355
Q5(245,0)=2440
Q5(245,1)=48.0561188355
Q5(246,0)=2450
Q5(246,1)=48.0561188355
Q5(247,0)=2460
Q5(247,1)=48.0561188355
Q5(248,0)=2470
Q5(248,1)=48.0561188355
Q5(249,0)=2480
Q5(249,1)=48.0561188355
Q5(250,0)=2490
Q5(250,1)=48.0561188355
Q5(251,0)=2500
Q5(251,1)=48.0561188355
Q5(252,0)=2510
Q5(252,1)=48.0561188355
Q5(253,0)=2520
Q5(253,1)=48.0561188355
Q5(254,0)=2530
Q5(254,1)=48.0561188355
Q5(255,0)=2540
Q5(255,1)=48.0561188355
Q5(256,0)=2550
Q5(256,1)=48.0561188355
Q5(257,0)=2560
Q5(257,1)=48.0561188355
Q5(258,0)=2570
Q5(258,1)=48.0561188355
Q5(259,0)=2580
Q5(259,1)=48.0561188355
Q5(260,0)=2590
Q5(260,1)=48.0561188355
Q5(261,0)=2600
Q5(261,1)=48.0561188355
Q5(262,0)=2610
Q5(262,1)=48.0561188355
Q5(263,0)=2620
Q5(263,1)=48.0561188355
Q5(264,0)=2630
Q5(264,1)=48.0561188355
Q5(265,0)=2640
Q5(265,1)=48.0561188355
Q5(266,0)=2650
Q5(266,1)=48.0561188355
Q5(267,0)=2660
Q5(267,1)=48.0561188355
Q5(268,0)=2670
Q5(268,1)=48.0561188355
Q5(269,0)=2680
Q5(269,1)=48.0561188355
Q5(270,0)=2690
Q5(270,1)=48.0561188355
Q5(271,0)=2700
Q5(271,1)=48.0561188355
Q5(272,0)=2710
Q5(272,1)=48.0561188355
Q5(273,0)=2720
Q5(273,1)=48.0561188355
Q5(274,0)=2730
Q5(274,1)=48.0561188355
Q5(275,0)=2740
Q5(275,1)=48.0561188355
Q5(276,0)=2750
Q5(276,1)=48.0561188355
Q5(277,0)=2760
Q5(277,1)=48.0561188355
Q5(278,0)=2770
Q5(278,1)=48.0561188355
Q5(279,0)=2780
Q5(279,1)=48.0561188355
Q5(280,0)=2790
Q5(280,1)=48.0561188355
Q5(281,0)=2800
Q5(281,1)=48.0561188355
Q5(282,0)=2810
Q5(282,1)=48.0561188355
Q5(283,0)=2820
Q5(283,1)=48.0561188355
Q5(284,0)=2830
Q5(284,1)=48.0561188355
Q5(285,0)=2840
Q5(285,1)=48.0561188355
Q5(286,0)=2850
Q5(286,1)=48.0561188355
Q5(287,0)=2860
Q5(287,1)=48.0561188355
Q5(288,0)=2870
Q5(288,1)=48.0561188355
Q5(289,0)=2880
Q5(289,1)=48.0561188355
Q5(290,0)=2890
Q5(290,1)=48.0561188355
Q5(291,0)=2900
Q5(291,1)=48.0561188355
Q5(292,0)=2910
Q5(292,1)=48.0561188355
Q5(293,0)=2920
Q5(293,1)=48.0561188355
Q5(294,0)=2930
Q5(294,1)=48.0561188355
Q5(295,0)=2940
Q5(295,1)=48.0561188355
Q5(296,0)=2950
Q5(296,1)=48.0561188355
Q5(297,0)=2960
Q5(297,1)=48.0561188355
Q5(298,0)=2970
Q5(298,1)=48.0561188355
Q5(299,0)=2980
Q5(299,1)=48.0561188355
Q5(300,0)=2990
Q5(300,1)=48.0561188355
Q5(301,0)=3000
Q5(301,1)=48.0561188355
Q5(302,0)=3010
Q5(302,1)=48.0561188355
Q5(303,0)=3020
Q5(303,1)=48.0561188355
Q5(304,0)=3030
Q5(304,1)=48.0561188355
Q5(305,0)=3040
Q5(305,1)=48.0561188355
Q5(306,0)=3050
Q5(306,1)=48.0561188355
Q5(307,0)=3060
Q5(307,1)=48.0561188355
Q5(308,0)=3070
Q5(308,1)=48.0561188355
Q5(309,0)=3080
Q5(309,1)=48.0561188355
Q5(310,0)=3090
Q5(310,1)=48.0561188355
Q5(311,0)=3100
Q5(311,1)=48.0561188355
Q5(312,0)=3110
Q5(312,1)=48.0561188355
Q5(313,0)=3120
Q5(313,1)=48.0561188355
Q5(314,0)=3130
Q5(314,1)=48.0561188355
Q5(315,0)=3140
Q5(315,1)=48.0561188355
Q5(316,0)=3150
Q5(316,1)=48.0561188355
Q5(317,0)=3160
Q5(317,1)=48.0561188355
Q5(318,0)=3170
Q5(318,1)=48.0561188355
Q5(319,0)=3180
Q5(319,1)=48.0561188355
Q5(320,0)=3190
Q5(320,1)=48.0561188355
Q5(321,0)=3200
Q5(321,1)=48.0561188355
Q5(322,0)=3210
Q5(322,1)=48.0561188355
Q5(323,0)=3220
Q5(323,1)=48.0561188355
Q5(324,0)=3230
Q5(324,1)=48.0561188355
Q5(325,0)=3240
Q5(325,1)=48.0561188355
Q5(326,0)=3250
Q5(326,1)=48.0561188355
Q5(327,0)=3260
Q5(327,1)=48.0561188355
Q5(328,0)=3270
Q5(328,1)=48.0561188355
Q5(329,0)=3280
Q5(329,1)=48.0561188355
Q5(330,0)=3290
Q5(330,1)=48.0561188355
Q5(331,0)=3300
Q5(331,1)=48.0561188355
Q5(332,0)=3310
Q5(332,1)=48.0561188355
Q5(333,0)=3320
Q5(333,1)=48.0561188355
Q5(334,0)=3330
Q5(334,1)=48.0561188355
Q5(335,0)=3340
Q5(335,1)=48.0561188355
Q5(336,0)=3350
Q5(336,1)=48.0561188355
Q5(337,0)=3360
Q5(337,1)=48.0561188355
Q5(338,0)=3370
Q5(338,1)=48.0561188355
Q5(339,0)=3380
Q5(339,1)=48.0561188355
Q5(340,0)=3390
Q5(340,1)=48.0561188355
Q5(341,0)=3400
Q5(341,1)=48.0561188355
Q5(342,0)=3410
Q5(342,1)=48.0561188355
Q5(343,0)=3420
Q5(343,1)=48.0561188355
Q5(344,0)=3430
Q5(344,1)=48.0561188355
Q5(345,0)=3440
Q5(345,1)=48.0561188355
Q5(346,0)=3450
Q5(346,1)=48.0561188355
Q5(347,0)=3460
Q5(347,1)=48.0561188355
Q5(348,0)=3470
Q5(348,1)=48.0561188355
Q5(349,0)=3480
Q5(349,1)=48.0561188355
Q5(350,0)=3490
Q5(350,1)=48.0561188355
Q5(351,0)=3500
Q5(351,1)=48.0561188355
Q5(352,0)=3510
Q5(352,1)=48.0561188355
Q5(353,0)=3520
Q5(353,1)=48.0561188355
Q5(354,0)=3530
Q5(354,1)=48.0561188355
Q5(355,0)=3540
Q5(355,1)=48.0561188355
Q5(356,0)=3550
Q5(356,1)=48.0561188355
Q5(357,0)=3560
Q5(357,1)=48.0561188355
Q5(358,0)=3570
Q5(358,1)=48.0561188355
Q5(359,0)=3580
Q5(359,1)=48.0561188355
Q5(360,0)=3590
Q5(360,1)=48.0561188355
Q5(361,0)=3600
Q5(361,1)=48.0561188355
Q5(362,0)=3610
Q5(362,1)=48.0561188355
Q5(363,0)=3620
Q5(363,1)=48.0561188355
Q5(364,0)=3630
Q5(364,1)=48.0561188355
Q5(365,0)=3640
Q5(365,1)=48.0561188355
Q5(366,0)=3650
Q5(366,1)=48.0561188355
Q5(367,0)=3660
Q5(367,1)=48.0561188355
Q5(368,0)=3670
Q5(368,1)=48.0561188355
Q5(369,0)=3680
Q5(369,1)=48.0561188355
Q5(370,0)=3690
Q5(370,1)=48.0561188355
Q5(371,0)=3700
Q5(371,1)=48.0561188355
Q5(372,0)=3710
Q5(372,1)=48.0561188355
Q5(373,0)=3720
Q5(373,1)=48.0561188355
Q5(374,0)=3730
Q5(374,1)=48.0561188355
Q5(375,0)=3740
Q5(375,1)=48.0561188355
Q5(376,0)=3750
Q5(376,1)=48.0561188355
Q5(377,0)=3760
Q5(377,1)=48.0561188355
Q5(378,0)=3770
Q5(378,1)=48.0561188355
Q5(379,0)=3780
Q5(379,1)=48.0561188355
Q5(380,0)=3790
Q5(380,1)=48.0561188355
Q5(381,0)=3800
Q5(381,1)=48.0561188355
Q5(382,0)=3810
Q5(382,1)=48.0561188355
Q5(383,0)=3820
Q5(383,1)=48.0561188355
Q5(384,0)=3830
Q5(384,1)=48.0561188355
Q5(385,0)=3840
Q5(385,1)=48.0561188355
Q5(386,0)=3850
Q5(386,1)=48.0561188355
Q5(387,0)=3860
Q5(387,1)=48.0561188355
Q5(388,0)=3870
Q5(388,1)=48.0561188355
Q5(389,0)=3880
Q5(389,1)=48.0561188355
Q5(390,0)=3890
Q5(390,1)=48.0561188355
Q5(391,0)=3900
Q5(391,1)=48.0561188355
Q5(392,0)=3910
Q5(392,1)=48.0561188355
Q5(393,0)=3920
Q5(393,1)=48.0561188355
Q5(394,0)=3930
Q5(394,1)=48.0561188355
Q5(395,0)=3940
Q5(395,1)=48.0561188355
Q5(396,0)=3950
Q5(396,1)=48.0561188355
Q5(397,0)=3960
Q5(397,1)=48.0561188355
Q5(398,0)=3970
Q5(398,1)=48.0561188355
Q5(399,0)=3980
Q5(399,1)=48.0561188355
Q5(400,0)=3990
Q5(400,1)=48.0561188355
Q5(401,0)=4000
Q5(401,1)=48.0561188355
Q5(402,0)=4010
Q5(402,1)=48.0561188355
Q5(403,0)=4020
Q5(403,1)=48.0561188355
Q5(404,0)=4030
Q5(404,1)=48.0561188355
Q5(405,0)=4040
Q5(405,1)=48.0561188355
Q5(406,0)=4050
Q5(406,1)=48.0561188355
Q5(407,0)=4060
Q5(407,1)=48.0561188355
Q5(408,0)=4070
Q5(408,1)=48.0561188355
Q5(409,0)=4080
Q5(409,1)=48.0561188355
Q5(410,0)=4090
Q5(410,1)=48.0561188355
Q5(411,0)=4100
Q5(411,1)=48.0561188355
Q5(412,0)=4110
Q5(412,1)=48.0561188355
Q5(413,0)=4120
Q5(413,1)=48.0561188355
Q5(414,0)=4130
Q5(414,1)=48.0561188355
Q5(415,0)=4140
Q5(415,1)=48.0561188355
Q5(416,0)=4150
Q5(416,1)=48.0561188355
Q5(417,0)=4160
Q5(417,1)=48.0561188355
Q5(418,0)=4170
Q5(418,1)=48.0561188355
Q5(419,0)=4180
Q5(419,1)=48.0561188355
Q5(420,0)=4190
Q5(420,1)=48.0561188355
Q5(421,0)=4200
Q5(421,1)=48.8412858804
Q5(422,0)=4210
Q5(422,1)=49.8425446189
Q5(423,0)=4220
Q5(423,1)=50.8435768554
Q5(424,0)=4230
Q5(424,1)=51.8442556688
Q5(425,0)=4240
Q5(425,1)=52.8444541824
Q5(426,0)=4250
Q5(426,1)=53.8440455804
Q5(427,0)=4260
Q5(427,1)=54.8429031243
Q5(428,0)=4270
Q5(428,1)=55.8409001684
Q5(429,0)=4280
Q5(429,1)=56.837910176
Q5(430,0)=4290
Q5(430,1)=57.8338067358
Q5(431,0)=4300
Q5(431,1)=58.8284635776
Q5(432,0)=4310
Q5(432,1)=59.8217545884
Q5(433,0)=4320
Q5(433,1)=60.8135538281
Q5(434,0)=4330
Q5(434,1)=61.8037355462
Q5(435,0)=4340
Q5(435,1)=62.7921741969
Q5(436,0)=4350
Q5(436,1)=63.7787444556
Q5(437,0)=4360
Q5(437,1)=64.7633212346
Q5(438,0)=4370
Q5(438,1)=65.7457796989
Q5(439,0)=4380
Q5(439,1)=66.7259952821
Q5(440,0)=4390
Q5(440,1)=67.7038437021
Q5(441,0)=4400
Q5(441,1)=68.679200977
Q5(442,0)=4410
Q5(442,1)=69.6519434408
Q5(443,0)=4420
Q5(443,1)=70.621947759
Q5(444,0)=4430
Q5(444,1)=71.5890909443
Q5(445,0)=4440
Q5(445,1)=72.553250372
Q5(446,0)=4450
Q5(446,1)=73.5143037958
Q5(447,0)=4460
Q5(447,1)=74.4721293634
Q5(448,0)=4470
Q5(448,1)=75.4266056316
Q5(449,0)=4480
Q5(449,1)=76.3776115818
Q5(450,0)=4490
Q5(450,1)=77.3250266354
Q5(451,0)=4500
Q5(451,1)=78.2687306693
Q5(452,0)=4510
Q5(452,1)=79.2086040307
Q5(453,0)=4520
Q5(453,1)=80.1445275526
Q5(454,0)=4530
Q5(454,1)=81.0763825688
Q5(455,0)=4540
Q5(455,1)=82.0040509289
Q5(456,0)=4550
Q5(456,1)=82.9274150134
Q5(457,0)=4560
Q5(457,1)=83.8463577484
Q5(458,0)=4570
Q5(458,1)=84.7607626208
Q5(459,0)=4580
Q5(459,1)=85.6705136926
Q5(460,0)=4590
Q5(460,1)=86.5754956161
Q5(461,0)=4600
Q5(461,1)=87.4755936482
Q5(462,0)=4610
Q5(462,1)=88.370693665
Q5(463,0)=4620
Q5(463,1)=89.2606821762
Q5(464,0)=4630
Q5(464,1)=90.1454463398
Q5(465,0)=4640
Q5(465,1)=91.0248739761
Q5(466,0)=4650
Q5(466,1)=91.898853582
Q5(467,0)=4660
Q5(467,1)=92.7672743452
Q5(468,0)=4670
Q5(468,1)=93.6300261582
Q5(469,0)=4680
Q5(469,1)=94.4869996322
Q5(470,0)=4690
Q5(470,1)=95.3380861111
Q5(471,0)=4700
Q5(471,1)=96.1831776852
Q5(472,0)=4710
Q5(472,1)=97.022167205
Q5(473,0)=4720
Q5(473,1)=97.8549482946
Q5(474,0)=4730
Q5(474,1)=98.6814153651
Q5(475,0)=4740
Q5(475,1)=99.5014636284
Q5(476,0)=4750
Q5(476,1)=100.31498911
Q5(477,0)=4760
Q5(477,1)=101.121888663
Q5(478,0)=4770
Q5(478,1)=101.92205998
Q5(479,0)=4780
Q5(479,1)=102.715401607
Q5(480,0)=4790
Q5(480,1)=103.501812955
Q5(481,0)=4800
Q5(481,1)=104.281194316
Q5(482,0)=4810
Q5(482,1)=105.05344687
Q5(483,0)=4820
Q5(483,1)=105.818472705
Q5(484,0)=4830
Q5(484,1)=106.576174821
Q5(485,0)=4840
Q5(485,1)=107.326457149
Q5(486,0)=4850
Q5(486,1)=108.06922456
Q5(487,0)=4860
Q5(487,1)=108.80438288
Q5(488,0)=4870
Q5(488,1)=109.531838896
Q5(489,0)=4880
Q5(489,1)=110.251500374
Q5(490,0)=4890
Q5(490,1)=110.963276068
Q5(491,0)=4900
Q5(491,1)=111.667075731
Q5(492,0)=4910
Q5(492,1)=112.362810129
Q5(493,0)=4920
Q5(493,1)=113.050391048
Q5(494,0)=4930
Q5(494,1)=113.729731311
Q5(495,0)=4940
Q5(495,1)=114.400744782
Q5(496,0)=4950
Q5(496,1)=115.063346385
Q5(497,0)=4960
Q5(497,1)=115.717452107
Q5(498,0)=4970
Q5(498,1)=116.362979014
Q5(499,0)=4980
Q5(499,1)=116.999845259
Q5(500,0)=4990
Q5(500,1)=117.627970095
Q5(501,0)=5000
Q5(501,1)=118.247273879
Q5(502,0)=5010
Q5(502,1)=118.857678091
Q5(503,0)=5020
Q5(503,1)=119.459105338
Q5(504,0)=5030
Q5(504,1)=120.051479363
Q5(505,0)=5040
Q5(505,1)=120.63472506
Q5(506,0)=5050
Q5(506,1)=121.208768478
Q5(507,0)=5060
Q5(507,1)=121.773536835
Q5(508,0)=5070
Q5(508,1)=122.328958522
Q5(509,0)=5080
Q5(509,1)=122.874963118
Q5(510,0)=5090
Q5(510,1)=123.411481395
Q5(511,0)=5100
Q5(511,1)=123.938445327
Q5(512,0)=5110
Q5(512,1)=124.4557881
Q5(513,0)=5120
Q5(513,1)=124.96344412
Q5(514,0)=5130
Q5(514,1)=125.461349021
Q5(515,0)=5140
Q5(515,1)=125.949439673
Q5(516,0)=5150
Q5(516,1)=126.427654191
Q5(517,0)=5160
Q5(517,1)=126.895931942
Q5(518,0)=5170
Q5(518,1)=127.354213554
Q5(519,0)=5180
Q5(519,1)=127.802440919
Q5(520,0)=5190
Q5(520,1)=128.240557207
Q5(521,0)=5200
Q5(521,1)=128.66850687
Q5(522,0)=5210
Q5(522,1)=129.086235647
Q5(523,0)=5220
Q5(523,1)=129.493690574
Q5(524,0)=5230
Q5(524,1)=129.890819989
Q5(525,0)=5240
Q5(525,1)=130.277573541
Q5(526,0)=5250
Q5(526,1)=130.653902193
Q5(527,0)=5260
Q5(527,1)=131.01975823
Q5(528,0)=5270
Q5(528,1)=131.375095264
Q5(529,0)=5280
Q5(529,1)=131.719868243
Q5(530,0)=5290
Q5(530,1)=132.054033453
Q5(531,0)=5300
Q5(531,1)=132.377548524
Q5(532,0)=5310
Q5(532,1)=132.690372438
Q5(533,0)=5320
Q5(533,1)=132.992465532
Q5(534,0)=5330
Q5(534,1)=133.283789502
Q5(535,0)=5340
Q5(535,1)=133.564307414
Q5(536,0)=5350
Q5(536,1)=133.833983698
Q5(537,0)=5360
Q5(537,1)=134.092784163
Q5(538,0)=5370
Q5(538,1)=134.340675995
Q5(539,0)=5380
Q5(539,1)=134.577627764
Q5(540,0)=5390
Q5(540,1)=134.803609427
Q5(541,0)=5400
Q5(541,1)=135.018592332
Q5(542,0)=5410
Q5(542,1)=135.22254922
Q5(543,0)=5420
Q5(543,1)=135.415454231
Q5(544,0)=5430
Q5(544,1)=135.597282908
Q5(545,0)=5440
Q5(545,1)=135.768012197
Q5(546,0)=5450
Q5(546,1)=135.927620449
Q5(547,0)=5460
Q5(547,1)=136.076087429
Q5(548,0)=5470
Q5(548,1)=136.213394312
Q5(549,0)=5480
Q5(549,1)=136.339523689
Q5(550,0)=5490
Q5(550,1)=136.454459568
Q5(551,0)=5500
Q5(551,1)=136.558187377
Q5(552,0)=5510
Q5(552,1)=136.650693963
Q5(553,0)=5520
Q5(553,1)=136.731967598
Q5(554,0)=5530
Q5(554,1)=136.801997976
Q5(555,0)=5540
Q5(555,1)=136.860776219
Q5(556,0)=5550
Q5(556,1)=136.908294875
Q5(557,0)=5560
Q5(557,1)=136.944547917
Q5(558,0)=5570
Q5(558,1)=136.969530751
Q5(559,0)=5580
Q5(559,1)=136.983240207
Q5(560,0)=5590
Q5(560,1)=136.985674549
Q5(561,0)=5600
Q5(561,1)=136.976833466
Q5(562,0)=5610
Q5(562,1)=136.956718081
Q5(563,0)=5620
Q5(563,1)=136.925330943
Q5(564,0)=5630
Q5(564,1)=136.882676033
Q5(565,0)=5640
Q5(565,1)=136.828758758
Q5(566,0)=5650
Q5(566,1)=136.763585955
Q5(567,0)=5660
Q5(567,1)=136.687165887
Q5(568,0)=5670
Q5(568,1)=136.599508243
Q5(569,0)=5680
Q5(569,1)=136.500624138
Q5(570,0)=5690
Q5(570,1)=136.390526108
Q5(571,0)=5700
Q5(571,1)=136.269228114
Q5(572,0)=5710
Q5(572,1)=136.136745535
Q5(573,0)=5720
Q5(573,1)=135.993095169
Q5(574,0)=5730
Q5(574,1)=135.838295228
Q5(575,0)=5740
Q5(575,1)=135.67236534
Q5(576,0)=5750
Q5(576,1)=135.495326543
Q5(577,0)=5760
Q5(577,1)=135.307201285
Q5(578,0)=5770
Q5(578,1)=135.108013418
Q5(579,0)=5780
Q5(579,1)=134.897788196
Q5(580,0)=5790
Q5(580,1)=134.676552275
Q5(581,0)=5800
Q5(581,1)=134.444333705
Q5(582,0)=5810
Q5(582,1)=134.201161929
Q5(583,0)=5820
Q5(583,1)=133.947067779
Q5(584,0)=5830
Q5(584,1)=133.682083472
Q5(585,0)=5840
Q5(585,1)=133.406242605
Q5(586,0)=5850
Q5(586,1)=133.119580152
Q5(587,0)=5860
Q5(587,1)=132.82213246
Q5(588,0)=5870
Q5(588,1)=132.513937241
Q5(589,0)=5880
Q5(589,1)=132.195033573
Q5(590,0)=5890
Q5(590,1)=131.865461888
Q5(591,0)=5900
Q5(591,1)=131.525263974
Q5(592,0)=5910
Q5(592,1)=131.174482965
Q5(593,0)=5920
Q5(593,1)=130.813163336
Q5(594,0)=5930
Q5(594,1)=130.441350899
Q5(595,0)=5940
Q5(595,1)=130.059092796
Q5(596,0)=5950
Q5(596,1)=129.666437495
Q5(597,0)=5960
Q5(597,1)=129.263434779
Q5(598,0)=5970
Q5(598,1)=128.850135747
Q5(599,0)=5980
Q5(599,1)=128.4265928
Q5(600,0)=5990
Q5(600,1)=127.992859639
Q5(601,0)=6000
Q5(601,1)=127.548991258
Q5(602,0)=6010
Q5(602,1)=127.095043936
Q5(603,0)=6020
Q5(603,1)=126.631075227
Q5(604,0)=6030
Q5(604,1)=126.15714396
Q5(605,0)=6040
Q5(605,1)=125.673310224
Q5(606,0)=6050
Q5(606,1)=125.179635365
Q5(607,0)=6060
Q5(607,1)=124.676181976
Q5(608,0)=6070
Q5(608,1)=124.163013889
Q5(609,0)=6080
Q5(609,1)=123.640196171
Q5(610,0)=6090
Q5(610,1)=123.107795109
Q5(611,0)=6100
Q5(611,1)=122.565878207
Q5(612,0)=6110
Q5(612,1)=122.014514174
Q5(613,0)=6120
Q5(613,1)=121.453772919
Q5(614,0)=6130
Q5(614,1)=120.883725537
Q5(615,0)=6140
Q5(615,1)=120.304444306
Q5(616,0)=6150
Q5(616,1)=119.716002673
Q5(617,0)=6160
Q5(617,1)=119.118475247
Q5(618,0)=6170
Q5(618,1)=118.511937788
Q5(619,0)=6180
Q5(619,1)=117.8964672
Q5(620,0)=6190
Q5(620,1)=117.272141519
Q5(621,0)=6200
Q5(621,1)=116.639039903
Q5(622,0)=6210
Q5(622,1)=115.997242623
Q5(623,0)=6220
Q5(623,1)=115.346831054
Q5(624,0)=6230
Q5(624,1)=114.68788766
Q5(625,0)=6240
Q5(625,1)=114.020495991
Q5(626,0)=6250
Q5(626,1)=113.344740665
Q5(627,0)=6260
Q5(627,1)=112.660707361
Q5(628,0)=6270
Q5(628,1)=111.968482808
Q5(629,0)=6280
Q5(629,1)=111.268154774
Q5(630,0)=6290
Q5(630,1)=110.559812054
Q5(631,0)=6300
Q5(631,1)=109.843544459
Q5(632,0)=6310
Q5(632,1)=109.119442804
Q5(633,0)=6320
Q5(633,1)=108.387598899
Q5(634,0)=6330
Q5(634,1)=107.648105536
Q5(635,0)=6340
Q5(635,1)=106.901056473
Q5(636,0)=6350
Q5(636,1)=106.146546431
Q5(637,0)=6360
Q5(637,1)=105.384671075
Q5(638,0)=6370
Q5(638,1)=104.615527001
Q5(639,0)=6380
Q5(639,1)=103.839211732
Q5(640,0)=6390
Q5(640,1)=103.055823696
Q5(641,0)=6400
Q5(641,1)=102.265462219
Q5(642,0)=6410
Q5(642,1)=101.468227511
Q5(643,0)=6420
Q5(643,1)=100.664220656
Q5(644,0)=6430
Q5(644,1)=99.8535435916
Q5(645,0)=6440
Q5(645,1)=99.0362991058
Q5(646,0)=6450
Q5(646,1)=98.212590817
Q5(647,0)=6460
Q5(647,1)=97.3825231634
Q5(648,0)=6470
Q5(648,1)=96.5462013899
Q5(649,0)=6480
Q5(649,1)=95.703731534
Q5(650,0)=6490
Q5(650,1)=94.8552204131
Q5(651,0)=6500
Q5(651,1)=94.0007756101
Q5(652,0)=6510
Q5(652,1)=93.1405054607
Q5(653,0)=6520
Q5(653,1)=92.2745190388
Q5(654,0)=6530
Q5(654,1)=91.4029261435
Q5(655,0)=6540
Q5(655,1)=90.5258372843
Q5(656,0)=6550
Q5(656,1)=89.6433636678
Q5(657,0)=6560
Q5(657,1)=88.7556171834
Q5(658,0)=6570
Q5(658,1)=87.8627103888
Q5(659,0)=6580
Q5(659,1)=86.9647564961
Q5(660,0)=6590
Q5(660,1)=86.0618693574
Q5(661,0)=6600
Q5(661,1)=85.1541634501
Q5(662,0)=6610
Q5(662,1)=84.2417538629
Q5(663,0)=6620
Q5(663,1)=83.3247562805
Q5(664,0)=6630
Q5(664,1)=82.4032869696
Q5(665,0)=6640
Q5(665,1)=81.4774627638
Q5(666,0)=6650
Q5(666,1)=80.5474010486
Q5(667,0)=6660
Q5(667,1)=79.6132197472
Q5(668,0)=6670
Q5(668,1)=78.6750373049
Q5(669,0)=6680
Q5(669,1)=77.7329726743
Q5(670,0)=6690
Q5(670,1)=76.7871453002
Q5(671,0)=6700
Q5(671,1)=75.8376751046
Q5(672,0)=6710
Q5(672,1)=74.8846824713
Q5(673,0)=6720
Q5(673,1)=73.9282882308
Q5(674,0)=6730
Q5(674,1)=72.9686136446
Q5(675,0)=6740
Q5(675,1)=72.0057803906
Q5(676,0)=6750
Q5(676,1)=71.0399105467
Q5(677,0)=6760
Q5(677,1)=70.0711265762
Q5(678,0)=6770
Q5(678,1)=69.0995513116
Q5(679,0)=6780
Q5(679,1)=68.1253079394
Q5(680,0)=6790
Q5(680,1)=67.1485199845
Q5(681,0)=6800
Q5(681,1)=66.1693112944
Q5(682,0)=6810
Q5(682,1)=65.1878060233
Q5(683,0)=6820
Q5(683,1)=64.2041286168
Q5(684,0)=6830
Q5(684,1)=63.218403796
Q5(685,0)=6840
Q5(685,1)=62.2307565413
Q5(686,0)=6850
Q5(686,1)=61.241312077
Q5(687,0)=6860
Q5(687,1)=60.2501958554
Q5(688,0)=6870
Q5(688,1)=59.2575335405
Q5(689,0)=6880
Q5(689,1)=58.2634509925
Q5(690,0)=6890
Q5(690,1)=57.2680742517
Q5(691,0)=6900
Q5(691,1)=56.2715295223
Q5(692,0)=6910
Q5(692,1)=55.2739431569
Q5(693,0)=6920
Q5(693,1)=54.2754416398
Q5(694,0)=6930
Q5(694,1)=53.2761515716
Q5(695,0)=6940
Q5(695,1)=52.2761996527
Q5(696,0)=6950
Q5(696,1)=51.2757126677
Q5(697,0)=6960
Q5(697,1)=50.2748174687
Q5(698,0)=6970
Q5(698,1)=49.2736409598
Q5(699,0)=6980
Q5(699,1)=48.2723100807
Q5(700,0)=6990
Q5(700,1)=48.0561188355
Q5(701,0)=7000
Q5(701,1)=48.0561188355
Q5(702,0)=7010
Q5(702,1)=48.0561188355
Q5(703,0)=7020
Q5(703,1)=48.0561188355
Q5(704,0)=7030
Q5(704,1)=48.0561188355
Q5(705,0)=7040
Q5(705,1)=48.0561188355
Q5(706,0)=7050
Q5(706,1)=48.0561188355
Q5(707,0)=7060
Q5(707,1)=48.0561188355
Q5(708,0)=7070
Q5(708,1)=48.0561188355
Q5(709,0)=7080
Q5(709,1)=48.0561188355
Q5(710,0)=7090
Q5(710,1)=48.0561188355
Q5(711,0)=7100
Q5(711,1)=48.0561188355
Q5(712,0)=7110
Q5(712,1)=48.0561188355
Q5(713,0)=7120
Q5(713,1)=48.0561188355
Q5(714,0)=7130
Q5(714,1)=48.0561188355
Q5(715,0)=7140
Q5(715,1)=48.0561188355
Q5(716,0)=7150
Q5(716,1)=48.0561188355
Q5(717,0)=7160
Q5(717,1)=48.0561188355
Q5(718,0)=7170
Q5(718,1)=48.0561188355
Q5(719,0)=7180
Q5(719,1)=48.0561188355
Q5(720,0)=7190
Q5(720,1)=48.0561188355
Q5(721,0)=7200
Q5(721,1)=48.0561188355
Q5(722,0)=7210
Q5(722,1)=48.0561188355
Q5(723,0)=7220
Q5(723,1)=48.0561188355
Q5(724,0)=7230
Q5(724,1)=48.0561188355
Q5(725,0)=7240
Q5(725,1)=48.0561188355
Q5(726,0)=7250
Q5(726,1)=48.0561188355
Q5(727,0)=7260
Q5(727,1)=48.0561188355
Q5(728,0)=7270
Q5(728,1)=48.0561188355
Q5(729,0)=7280
Q5(729,1)=48.0561188355
Q5(730,0)=7290
Q5(730,1)=48.0561188355
Q5(731,0)=7300
Q5(731,1)=48.0561188355
Q5(732,0)=7310
Q5(732,1)=48.0561188355
Q5(733,0)=7320
Q5(733,1)=48.0561188355
Q5(734,0)=7330
Q5(734,1)=48.0561188355
Q5(735,0)=7340
Q5(735,1)=48.0561188355
Q5(736,0)=7350
Q5(736,1)=48.0561188355
Q5(737,0)=7360
Q5(737,1)=48.0561188355
Q5(738,0)=7370
Q5(738,1)=48.0561188355
Q5(739,0)=7380
Q5(739,1)=48.0561188355
Q5(740,0)=7390
Q5(740,1)=48.0561188355
Q5(741,0)=7400
Q5(741,1)=48.0561188355
Q5(742,0)=7410
Q5(742,1)=48.0561188355
Q5(743,0)=7420
Q5(743,1)=48.0561188355
Q5(744,0)=7430
Q5(744,1)=48.0561188355
Q5(745,0)=7440
Q5(745,1)=48.0561188355
Q5(746,0)=7450
Q5(746,1)=48.0561188355
Q5(747,0)=7460
Q5(747,1)=48.0561188355
Q5(748,0)=7470
Q5(748,1)=48.0561188355
Q5(749,0)=7480
Q5(749,1)=48.0561188355
Q5(750,0)=7490
Q5(750,1)=48.0561188355
Q5(751,0)=7500
Q5(751,1)=48.0561188355
Q5(752,0)=7510
Q5(752,1)=48.0561188355
Q5(753,0)=7520
Q5(753,1)=48.0561188355
Q5(754,0)=7530
Q5(754,1)=48.0561188355
Q5(755,0)=7540
Q5(755,1)=48.0561188355
Q5(756,0)=7550
Q5(756,1)=48.0561188355
Q5(757,0)=7560
Q5(757,1)=48.0561188355
Q5(758,0)=7570
Q5(758,1)=48.0561188355
Q5(759,0)=7580
Q5(759,1)=48.0561188355
Q5(760,0)=7590
Q5(760,1)=48.0561188355
Q5(761,0)=7600
Q5(761,1)=48.0561188355
Q5(762,0)=7610
Q5(762,1)=48.0561188355
Q5(763,0)=7620
Q5(763,1)=48.0561188355
Q5(764,0)=7630
Q5(764,1)=48.0561188355
Q5(765,0)=7640
Q5(765,1)=48.0561188355
Q5(766,0)=7650
Q5(766,1)=48.0561188355
Q5(767,0)=7660
Q5(767,1)=48.0561188355
Q5(768,0)=7670
Q5(768,1)=48.0561188355
Q5(769,0)=7680
Q5(769,1)=48.0561188355
Q5(770,0)=7690
Q5(770,1)=48.0561188355
Q5(771,0)=7700
Q5(771,1)=48.0561188355
Q5(772,0)=7710
Q5(772,1)=48.0561188355
Q5(773,0)=7720
Q5(773,1)=48.0561188355
Q5(774,0)=7730
Q5(774,1)=48.0561188355
Q5(775,0)=7740
Q5(775,1)=48.0561188355
Q5(776,0)=7750
Q5(776,1)=48.0561188355
Q5(777,0)=7760
Q5(777,1)=48.0561188355
Q5(778,0)=7770
Q5(778,1)=48.0561188355
Q5(779,0)=7780
Q5(779,1)=48.0561188355
Q5(780,0)=7790
Q5(780,1)=48.0561188355
Q5(781,0)=7800
Q5(781,1)=48.0561188355
Q5(782,0)=7810
Q5(782,1)=48.0561188355
Q5(783,0)=7820
Q5(783,1)=48.0561188355
Q5(784,0)=7830
Q5(784,1)=48.0561188355
Q5(785,0)=7840
Q5(785,1)=48.0561188355
Q5(786,0)=7850
Q5(786,1)=48.0561188355
Q5(787,0)=7860
Q5(787,1)=48.0561188355
Q5(788,0)=7870
Q5(788,1)=48.0561188355
Q5(789,0)=7880
Q5(789,1)=48.0561188355
Q5(790,0)=7890
Q5(790,1)=48.0561188355
Q5(791,0)=7900
Q5(791,1)=48.0561188355
Q5(792,0)=7910
Q5(792,1)=48.0561188355
Q5(793,0)=7920
Q5(793,1)=48.0561188355
Q5(794,0)=7930
Q5(794,1)=48.0561188355
Q5(795,0)=7940
Q5(795,1)=48.0561188355
Q5(796,0)=7950
Q5(796,1)=48.0561188355
Q5(797,0)=7960
Q5(797,1)=48.0561188355
Q5(798,0)=7970
Q5(798,1)=48.0561188355
Q5(799,0)=7980
Q5(799,1)=48.0561188355
Q5(800,0)=7990
Q5(800,1)=48.0561188355
Q5(801,0)=8000
Q5(801,1)=48.0561188355
Q5(802,0)=8010
Q5(802,1)=48.0561188355
Q5(803,0)=8020
Q5(803,1)=48.0561188355
Q5(804,0)=8030
Q5(804,1)=48.0561188355
Q5(805,0)=8040
Q5(805,1)=48.0561188355
Q5(806,0)=8050
Q5(806,1)=48.0561188355
Q5(807,0)=8060
Q5(807,1)=48.0561188355
Q5(808,0)=8070
Q5(808,1)=48.0561188355
Q5(809,0)=8080
Q5(809,1)=48.0561188355
Q5(810,0)=8090
Q5(810,1)=48.0561188355
Q5(811,0)=8100
Q5(811,1)=48.0561188355
Q5(812,0)=8110
Q5(812,1)=48.0561188355
Q5(813,0)=8120
Q5(813,1)=48.0561188355
Q5(814,0)=8130
Q5(814,1)=48.0561188355
Q5(815,0)=8140
Q5(815,1)=48.0561188355
Q5(816,0)=8150
Q5(816,1)=48.0561188355
Q5(817,0)=8160
Q5(817,1)=48.0561188355
Q5(818,0)=8170
Q5(818,1)=48.0561188355
Q5(819,0)=8180
Q5(819,1)=48.0561188355
Q5(820,0)=8190
Q5(820,1)=48.0561188355
Q5(821,0)=8200
Q5(821,1)=48.0561188355
Q5(822,0)=8210
Q5(822,1)=48.0561188355
Q5(823,0)=8220
Q5(823,1)=48.0561188355
Q5(824,0)=8230
Q5(824,1)=48.0561188355
Q5(825,0)=8240
Q5(825,1)=48.0561188355
Q5(826,0)=8250
Q5(826,1)=48.0561188355
Q5(827,0)=8260
Q5(827,1)=48.0561188355
Q5(828,0)=8270
Q5(828,1)=48.0561188355
Q5(829,0)=8280
Q5(829,1)=48.0561188355
Q5(830,0)=8290
Q5(830,1)=48.0561188355
Q5(831,0)=8300
Q5(831,1)=48.0561188355
Q5(832,0)=8310
Q5(832,1)=48.0561188355
Q5(833,0)=8320
Q5(833,1)=48.0561188355
Q5(834,0)=8330
Q5(834,1)=48.0561188355
Q5(835,0)=8340
Q5(835,1)=48.0561188355
Q5(836,0)=8350
Q5(836,1)=48.0561188355
Q5(837,0)=8360
Q5(837,1)=48.0561188355
Q5(838,0)=8370
Q5(838,1)=48.0561188355
Q5(839,0)=8380
Q5(839,1)=48.0561188355
Q5(840,0)=8390
Q5(840,1)=48.0561188355
Q5(841,0)=8400
Q5(841,1)=48.0561188355
Q5(842,0)=8410
Q5(842,1)=48.0561188355
Q5(843,0)=8420
Q5(843,1)=48.0561188355
Q5(844,0)=8430
Q5(844,1)=48.0561188355
Q5(845,0)=8440
Q5(845,1)=48.0561188355
Q5(846,0)=8450
Q5(846,1)=48.0561188355
Q5(847,0)=8460
Q5(847,1)=48.0561188355
Q5(848,0)=8470
Q5(848,1)=48.0561188355
Q5(849,0)=8480
Q5(849,1)=48.0561188355
Q5(850,0)=8490
Q5(850,1)=48.0561188355
Q5(851,0)=8500
Q5(851,1)=48.0561188355
Q5(852,0)=8510
Q5(852,1)=48.0561188355
Q5(853,0)=8520
Q5(853,1)=48.0561188355
Q5(854,0)=8530
Q5(854,1)=48.0561188355
Q5(855,0)=8540
Q5(855,1)=48.0561188355
Q5(856,0)=8550
Q5(856,1)=48.0561188355
Q5(857,0)=8560
Q5(857,1)=48.0561188355
Q5(858,0)=8570
Q5(858,1)=48.0561188355
Q5(859,0)=8580
Q5(859,1)=48.0561188355
Q5(860,0)=8590
Q5(860,1)=48.0561188355
Q5(861,0)=8600
Q5(861,1)=48.0561188355
Q5(862,0)=8610
Q5(862,1)=48.0561188355
Q5(863,0)=8620
Q5(863,1)=48.0561188355
Q5(864,0)=8630
Q5(864,1)=48.0561188355
Q5(865,0)=8640
Q5(865,1)=48.0561188355
Q5(866,0)=8650
Q5(866,1)=48.0561188355
Q5(867,0)=8660
Q5(867,1)=48.0561188355
Q5(868,0)=8670
Q5(868,1)=48.0561188355
Q5(869,0)=8680
Q5(869,1)=48.0561188355
Q5(870,0)=8690
Q5(870,1)=48.0561188355
Q5(871,0)=8700
Q5(871,1)=48.0561188355
Q5(872,0)=8710
Q5(872,1)=48.0561188355
Q5(873,0)=8720
Q5(873,1)=48.0561188355
Q5(874,0)=8730
Q5(874,1)=48.0561188355
Q5(875,0)=8740
Q5(875,1)=48.0561188355
Q5(876,0)=8750
Q5(876,1)=48.0561188355
Q5(877,0)=8760
Q5(877,1)=48.0561188355
Q5(878,0)=8770
Q5(878,1)=48.0561188355
Q5(879,0)=8780
Q5(879,1)=48.0561188355
Q5(880,0)=8790
Q5(880,1)=48.0561188355
Q5(881,0)=8800
Q5(881,1)=48.0561188355
Q5(882,0)=8810
Q5(882,1)=48.0561188355
Q5(883,0)=8820
Q5(883,1)=48.0561188355
Q5(884,0)=8830
Q5(884,1)=48.0561188355
Q5(885,0)=8840
Q5(885,1)=48.0561188355
Q5(886,0)=8850
Q5(886,1)=48.0561188355
Q5(887,0)=8860
Q5(887,1)=48.0561188355
Q5(888,0)=8870
Q5(888,1)=48.0561188355
Q5(889,0)=8880
Q5(889,1)=48.0561188355
Q5(890,0)=8890
Q5(890,1)=48.0561188355
Q5(891,0)=8900
Q5(891,1)=48.0561188355
Q5(892,0)=8910
Q5(892,1)=48.0561188355
Q5(893,0)=8920
Q5(893,1)=48.0561188355
Q5(894,0)=8930
Q5(894,1)=48.0561188355
Q5(895,0)=8940
Q5(895,1)=48.0561188355
Q5(896,0)=8950
Q5(896,1)=48.0561188355
Q5(897,0)=8960
Q5(897,1)=48.0561188355
Q5(898,0)=8970
Q5(898,1)=48.0561188355
Q5(899,0)=8980
Q5(899,1)=48.0561188355
Q5(900,0)=8990
Q5(900,1)=48.0561188355
Q5(901,0)=9000
Q5(901,1)=48.0561188355
Q5(902,0)=9010
Q5(902,1)=48.0561188355
Q5(903,0)=9020
Q5(903,1)=48.0561188355
Q5(904,0)=9030
Q5(904,1)=48.0561188355
Q5(905,0)=9040
Q5(905,1)=48.0561188355
Q5(906,0)=9050
Q5(906,1)=48.0561188355
Q5(907,0)=9060
Q5(907,1)=48.0561188355
Q5(908,0)=9070
Q5(908,1)=48.0561188355
Q5(909,0)=9080
Q5(909,1)=48.0561188355
Q5(910,0)=9090
Q5(910,1)=48.0561188355
Q5(911,0)=9100
Q5(911,1)=48.0561188355
Q5(912,0)=9110
Q5(912,1)=48.0561188355
Q5(913,0)=9120
Q5(913,1)=48.0561188355
Q5(914,0)=9130
Q5(914,1)=48.0561188355
Q5(915,0)=9140
Q5(915,1)=48.0561188355
Q5(916,0)=9150
Q5(916,1)=48.0561188355
Q5(917,0)=9160
Q5(917,1)=48.0561188355
Q5(918,0)=9170
Q5(918,1)=48.0561188355
Q5(919,0)=9180
Q5(919,1)=48.0561188355
Q5(920,0)=9190
Q5(920,1)=48.0561188355
Q5(921,0)=9200
Q5(921,1)=48.0561188355
Q5(922,0)=9210
Q5(922,1)=48.0561188355
Q5(923,0)=9220
Q5(923,1)=48.0561188355
Q5(924,0)=9230
Q5(924,1)=48.0561188355
Q5(925,0)=9240
Q5(925,1)=48.0561188355
Q5(926,0)=9250
Q5(926,1)=48.0561188355
Q5(927,0)=9260
Q5(927,1)=48.0561188355
Q5(928,0)=9270
Q5(928,1)=48.0561188355
Q5(929,0)=9280
Q5(929,1)=48.0561188355
Q5(930,0)=9290
Q5(930,1)=48.0561188355
Q5(931,0)=9300
Q5(931,1)=48.0561188355
Q5(932,0)=9310
Q5(932,1)=48.0561188355
Q5(933,0)=9320
Q5(933,1)=48.0561188355
Q5(934,0)=9330
Q5(934,1)=48.0561188355
Q5(935,0)=9340
Q5(935,1)=48.0561188355
Q5(936,0)=9350
Q5(936,1)=48.0561188355
Q5(937,0)=9360
Q5(937,1)=48.0561188355
Q5(938,0)=9370
Q5(938,1)=48.0561188355
Q5(939,0)=9380
Q5(939,1)=48.0561188355
Q5(940,0)=9390
Q5(940,1)=48.0561188355
Q5(941,0)=9400
Q5(941,1)=48.0561188355
Q5(942,0)=9410
Q5(942,1)=48.0561188355
Q5(943,0)=9420
Q5(943,1)=48.0561188355
Q5(944,0)=9430
Q5(944,1)=48.0561188355
Q5(945,0)=9440
Q5(945,1)=48.0561188355
Q5(946,0)=9450
Q5(946,1)=48.0561188355
Q5(947,0)=9460
Q5(947,1)=48.0561188355
Q5(948,0)=9470
Q5(948,1)=48.0561188355
Q5(949,0)=9480
Q5(949,1)=48.0561188355
Q5(950,0)=9490
Q5(950,1)=48.0561188355
Q5(951,0)=9500
Q5(951,1)=48.0561188355
Q5(952,0)=9510
Q5(952,1)=48.0561188355
Q5(953,0)=9520
Q5(953,1)=48.0561188355
Q5(954,0)=9530
Q5(954,1)=48.0561188355
Q5(955,0)=9540
Q5(955,1)=48.0561188355
Q5(956,0)=9550
Q5(956,1)=48.0561188355
Q5(957,0)=9560
Q5(957,1)=48.0561188355
Q5(958,0)=9570
Q5(958,1)=48.0561188355
Q5(959,0)=9580
Q5(959,1)=48.0561188355
Q5(960,0)=9590
Q5(960,1)=48.0561188355
Q5(961,0)=9600
Q5(961,1)=48.0561188355
Q5(962,0)=9610
Q5(962,1)=48.0561188355
Q5(963,0)=9620
Q5(963,1)=48.0561188355
Q5(964,0)=9630
Q5(964,1)=48.0561188355
Q5(965,0)=9640
Q5(965,1)=48.0561188355
Q5(966,0)=9650
Q5(966,1)=48.0561188355
Q5(967,0)=9660
Q5(967,1)=48.0561188355
Q5(968,0)=9670
Q5(968,1)=48.0561188355
Q5(969,0)=9680
Q5(969,1)=48.0561188355
Q5(970,0)=9690
Q5(970,1)=48.0561188355
Q5(971,0)=9700
Q5(971,1)=48.0561188355
Q5(972,0)=9710
Q5(972,1)=48.0561188355
Q5(973,0)=9720
Q5(973,1)=48.0561188355
Q5(974,0)=9730
Q5(974,1)=48.0561188355
Q5(975,0)=9740
Q5(975,1)=48.0561188355
Q5(976,0)=9750
Q5(976,1)=48.0561188355
Q5(977,0)=9760
Q5(977,1)=48.0561188355
Q5(978,0)=9770
Q5(978,1)=48.0561188355
Q5(979,0)=9780
Q5(979,1)=48.8412858804
Q5(980,0)=9790
Q5(980,1)=49.8425446189
Q5(981,0)=9800
Q5(981,1)=50.8435768554
Q5(982,0)=9810
Q5(982,1)=51.8442556688
Q5(983,0)=9820
Q5(983,1)=52.8444541824
Q5(984,0)=9830
Q5(984,1)=53.8440455804
Q5(985,0)=9840
Q5(985,1)=54.8429031243
Q5(986,0)=9850
Q5(986,1)=55.8409001684
Q5(987,0)=9860
Q5(987,1)=56.837910176
Q5(988,0)=9870
Q5(988,1)=57.8338067358
Q5(989,0)=9880
Q5(989,1)=58.8284635776
Q5(990,0)=9890
Q5(990,1)=59.8217545884
Q5(991,0)=9900
Q5(991,1)=60.8135538281
Q5(992,0)=9910
Q5(992,1)=61.8037355462
Q5(993,0)=9920
Q5(993,1)=62.7921741969
Q5(994,0)=9930
Q5(994,1)=63.7787444556
Q5(995,0)=9940
Q5(995,1)=64.7633212346
Q5(996,0)=9950
Q5(996,1)=65.7457796989
Q5(997,0)=9960
Q5(997,1)=66.7259952821
Q5(998,0)=9970
Q5(998,1)=67.7038437021
Q5(999,0)=9980
Q5(999,1)=68.679200977
Q5(1000,0)=9990
Q5(1000,1)=69.6519434408
Q5(1001,0)=10000
Q5(1001,1)=70.621947759
Q5(1002,0)=10010
Q5(1002,1)=71.5890909443
Q5(1003,0)=10020
Q5(1003,1)=72.553250372
Q5(1004,0)=10030
Q5(1004,1)=73.5143037958
Q5(1005,0)=10040
Q5(1005,1)=74.4721293634
Q5(1006,0)=10050
Q5(1006,1)=75.4266056316
Q5(1007,0)=10060
Q5(1007,1)=76.3776115818
Q5(1008,0)=10070
Q5(1008,1)=77.3250266354
Q5(1009,0)=10080
Q5(1009,1)=78.2687306693
Q5(1010,0)=10090
Q5(1010,1)=79.2086040307
Q5(1011,0)=10100
Q5(1011,1)=80.1445275526
Q5(1012,0)=10110
Q5(1012,1)=81.0763825688
Q5(1013,0)=10120
Q5(1013,1)=82.0040509289
Q5(1014,0)=10130
Q5(1014,1)=82.9274150134
Q5(1015,0)=10140
Q5(1015,1)=83.8463577484
Q5(1016,0)=10150
Q5(1016,1)=84.7607626208
Q5(1017,0)=10160
Q5(1017,1)=85.6705136926
Q5(1018,0)=10170
Q5(1018,1)=86.5754956161
Q5(1019,0)=10180
Q5(1019,1)=87.4755936482
Q5(1020,0)=10190
Q5(1020,1)=88.370693665
Q5(1021,0)=10200
Q5(1021,1)=89.2606821762
Q5(1022,0)=10210
Q5(1022,1)=90.1454463398
Q5(1023,0)=10220
Q5(1023,1)=91.0248739761
Q5(1024,0)=10230
Q5(1024,1)=91.898853582
Q5(1025,0)=10240
Q5(1025,1)=92.7672743452
Q5(1026,0)=10250
Q5(1026,1)=93.6300261582
Q5(1027,0)=10260
Q5(1027,1)=94.4869996322
Q5(1028,0)=10270
Q5(1028,1)=95.3380861111
Q5(1029,0)=10280
Q5(1029,1)=96.1831776852
Q5(1030,0)=10290
Q5(1030,1)=97.022167205
Q5(1031,0)=10300
Q5(1031,1)=97.8549482946
Q5(1032,0)=10310
Q5(1032,1)=98.6814153651
Q5(1033,0)=10320
Q5(1033,1)=99.5014636284
Q5(1034,0)=10330
Q5(1034,1)=100.31498911
Q5(1035,0)=10340
Q5(1035,1)=101.121888663
Q5(1036,0)=10350
Q5(1036,1)=101.92205998
Q5(1037,0)=10360
Q5(1037,1)=102.715401607
Q5(1038,0)=10370
Q5(1038,1)=103.501812955
Q5(1039,0)=10380
Q5(1039,1)=104.281194316
Q5(1040,0)=10390
Q5(1040,1)=105.05344687
Q5(1041,0)=10400
Q5(1041,1)=105.818472705
Q5(1042,0)=10410
Q5(1042,1)=106.576174821
Q5(1043,0)=10420
Q5(1043,1)=107.326457149
Q5(1044,0)=10430
Q5(1044,1)=108.06922456
Q5(1045,0)=10440
Q5(1045,1)=108.80438288
Q5(1046,0)=10450
Q5(1046,1)=109.531838896
Q5(1047,0)=10460
Q5(1047,1)=110.251500374
Q5(1048,0)=10470
Q5(1048,1)=110.963276068
Q5(1049,0)=10480
Q5(1049,1)=111.667075731
Q5(1050,0)=10490
Q5(1050,1)=112.362810129
Q5(1051,0)=10500
Q5(1051,1)=113.050391048
Q5(1052,0)=10510
Q5(1052,1)=113.729731311
Q5(1053,0)=10520
Q5(1053,1)=114.400744782
Q5(1054,0)=10530
Q5(1054,1)=115.063346385
Q5(1055,0)=10540
Q5(1055,1)=115.717452107
Q5(1056,0)=10550
Q5(1056,1)=116.362979014
Q5(1057,0)=10560
Q5(1057,1)=116.999845259
Q5(1058,0)=10570
Q5(1058,1)=117.627970095
Q5(1059,0)=10580
Q5(1059,1)=118.247273879
Q5(1060,0)=10590
Q5(1060,1)=118.857678091
Q5(1061,0)=10600
Q5(1061,1)=119.459105338
Q5(1062,0)=10610
Q5(1062,1)=120.051479363
Q5(1063,0)=10620
Q5(1063,1)=120.63472506
Q5(1064,0)=10630
Q5(1064,1)=121.208768478
Q5(1065,0)=10640
Q5(1065,1)=121.773536835
Q5(1066,0)=10650
Q5(1066,1)=122.328958522
Q5(1067,0)=10660
Q5(1067,1)=122.874963118
Q5(1068,0)=10670
Q5(1068,1)=123.411481395
Q5(1069,0)=10680
Q5(1069,1)=123.938445327
Q5(1070,0)=10690
Q5(1070,1)=124.4557881
Q5(1071,0)=10700
Q5(1071,1)=124.96344412
Q5(1072,0)=10710
Q5(1072,1)=125.461349021
Q5(1073,0)=10720
Q5(1073,1)=125.949439673
Q5(1074,0)=10730
Q5(1074,1)=126.427654191
Q5(1075,0)=10740
Q5(1075,1)=126.895931942
Q5(1076,0)=10750
Q5(1076,1)=127.354213554
Q5(1077,0)=10760
Q5(1077,1)=127.802440919
Q5(1078,0)=10770
Q5(1078,1)=128.240557207
Q5(1079,0)=10780
Q5(1079,1)=128.66850687
Q5(1080,0)=10790
Q5(1080,1)=129.086235647
Q5(1081,0)=10800
Q5(1081,1)=129.493690574
Q5(1082,0)=10810
Q5(1082,1)=129.890819989
Q5(1083,0)=10820
Q5(1083,1)=130.277573541
Q5(1084,0)=10830
Q5(1084,1)=130.653902193
Q5(1085,0)=10840
Q5(1085,1)=131.01975823
Q5(1086,0)=10850
Q5(1086,1)=131.375095264
Q5(1087,0)=10860
Q5(1087,1)=131.719868243
Q5(1088,0)=10870
Q5(1088,1)=132.054033453
Q5(1089,0)=10880
Q5(1089,1)=132.377548524
Q5(1090,0)=10890
Q5(1090,1)=132.690372438
Q5(1091,0)=10900
Q5(1091,1)=132.992465532
Q5(1092,0)=10910
Q5(1092,1)=133.283789502
Q5(1093,0)=10920
Q5(1093,1)=133.564307414
Q5(1094,0)=10930
Q5(1094,1)=133.833983698
Q5(1095,0)=10940
Q5(1095,1)=134.092784163
Q5(1096,0)=10950
Q5(1096,1)=134.340675995
Q5(1097,0)=10960
Q5(1097,1)=134.577627764
Q5(1098,0)=10970
Q5(1098,1)=134.803609427
Q5(1099,0)=10980
Q5(1099,1)=135.018592332
Q5(1100,0)=10990
Q5(1100,1)=135.22254922
Q5(1101,0)=11000
Q5(1101,1)=135.415454231
Q5(1102,0)=11010
Q5(1102,1)=135.597282908
Q5(1103,0)=11020
Q5(1103,1)=135.768012197
Q5(1104,0)=11030
Q5(1104,1)=135.927620449
Q5(1105,0)=11040
Q5(1105,1)=136.076087429
Q5(1106,0)=11050
Q5(1106,1)=136.213394312
Q5(1107,0)=11060
Q5(1107,1)=136.339523689
Q5(1108,0)=11070
Q5(1108,1)=136.454459568
Q5(1109,0)=11080
Q5(1109,1)=136.558187377
Q5(1110,0)=11090
Q5(1110,1)=136.650693963
Q5(1111,0)=11100
Q5(1111,1)=136.731967598
Q5(1112,0)=11110
Q5(1112,1)=136.801997976
Q5(1113,0)=11120
Q5(1113,1)=136.860776219
Q5(1114,0)=11130
Q5(1114,1)=136.908294875
Q5(1115,0)=11140
Q5(1115,1)=136.944547917
Q5(1116,0)=11150
Q5(1116,1)=136.969530751
Q5(1117,0)=11160
Q5(1117,1)=136.983240207
*DIM,Q6,TABLE,1117,1,1,TIME
Q6(1,0)=0
Q6(1,1)=136.983240207
Q6(2,0)=10
Q6(2,1)=136.985674549
Q6(3,0)=20
Q6(3,1)=136.976833466
Q6(4,0)=30
Q6(4,1)=136.956718081
Q6(5,0)=40
Q6(5,1)=136.925330943
Q6(6,0)=50
Q6(6,1)=136.882676033
Q6(7,0)=60
Q6(7,1)=136.828758758
Q6(8,0)=70
Q6(8,1)=136.763585955
Q6(9,0)=80
Q6(9,1)=136.687165887
Q6(10,0)=90
Q6(10,1)=136.599508243
Q6(11,0)=100
Q6(11,1)=136.500624138
Q6(12,0)=110
Q6(12,1)=136.390526108
Q6(13,0)=120
Q6(13,1)=136.269228114
Q6(14,0)=130
Q6(14,1)=136.136745535
Q6(15,0)=140
Q6(15,1)=135.993095169
Q6(16,0)=150
Q6(16,1)=135.838295228
Q6(17,0)=160
Q6(17,1)=135.67236534
Q6(18,0)=170
Q6(18,1)=135.495326543
Q6(19,0)=180
Q6(19,1)=135.307201285
Q6(20,0)=190
Q6(20,1)=135.108013418
Q6(21,0)=200
Q6(21,1)=134.897788196
Q6(22,0)=210
Q6(22,1)=134.676552275
Q6(23,0)=220
Q6(23,1)=134.444333705
Q6(24,0)=230
Q6(24,1)=134.201161929
Q6(25,0)=240
Q6(25,1)=133.947067779
Q6(26,0)=250
Q6(26,1)=133.682083472
Q6(27,0)=260
Q6(27,1)=133.406242605
Q6(28,0)=270
Q6(28,1)=133.119580152
Q6(29,0)=280
Q6(29,1)=132.82213246
Q6(30,0)=290
Q6(30,1)=132.513937241
Q6(31,0)=300
Q6(31,1)=132.195033573
Q6(32,0)=310
Q6(32,1)=131.865461888
Q6(33,0)=320
Q6(33,1)=131.525263974
Q6(34,0)=330
Q6(34,1)=131.174482965
Q6(35,0)=340
Q6(35,1)=130.813163336
Q6(36,0)=350
Q6(36,1)=130.441350899
Q6(37,0)=360
Q6(37,1)=130.059092796
Q6(38,0)=370
Q6(38,1)=129.666437495
Q6(39,0)=380
Q6(39,1)=129.263434779
Q6(40,0)=390
Q6(40,1)=128.850135747
Q6(41,0)=400
Q6(41,1)=128.4265928
Q6(42,0)=410
Q6(42,1)=127.992859639
Q6(43,0)=420
Q6(43,1)=127.548991258
Q6(44,0)=430
Q6(44,1)=127.095043936
Q6(45,0)=440
Q6(45,1)=126.631075227
Q6(46,0)=450
Q6(46,1)=126.15714396
Q6(47,0)=460
Q6(47,1)=125.673310224
Q6(48,0)=470
Q6(48,1)=125.179635365
Q6(49,0)=480
Q6(49,1)=124.676181976
Q6(50,0)=490
Q6(50,1)=124.163013889
Q6(51,0)=500
Q6(51,1)=123.640196171
Q6(52,0)=510
Q6(52,1)=123.107795109
Q6(53,0)=520
Q6(53,1)=122.565878207
Q6(54,0)=530
Q6(54,1)=122.014514174
Q6(55,0)=540
Q6(55,1)=121.453772919
Q6(56,0)=550
Q6(56,1)=120.883725537
Q6(57,0)=560
Q6(57,1)=120.304444306
Q6(58,0)=570
Q6(58,1)=119.716002673
Q6(59,0)=580
Q6(59,1)=119.118475247
Q6(60,0)=590
Q6(60,1)=118.511937788
Q6(61,0)=600
Q6(61,1)=117.8964672
Q6(62,0)=610
Q6(62,1)=117.272141519
Q6(63,0)=620
Q6(63,1)=116.639039903
Q6(64,0)=630
Q6(64,1)=115.997242623
Q6(65,0)=640
Q6(65,1)=115.346831054
Q6(66,0)=650
Q6(66,1)=114.68788766
Q6(67,0)=660
Q6(67,1)=114.020495991
Q6(68,0)=670
Q6(68,1)=113.344740665
Q6(69,0)=680
Q6(69,1)=112.660707361
Q6(70,0)=690
Q6(70,1)=111.968482808
Q6(71,0)=700
Q6(71,1)=111.268154774
Q6(72,0)=710
Q6(72,1)=110.559812054
Q6(73,0)=720
Q6(73,1)=109.843544459
Q6(74,0)=730
Q6(74,1)=109.119442804
Q6(75,0)=740
Q6(75,1)=108.387598899
Q6(76,0)=750
Q6(76,1)=107.648105536
Q6(77,0)=760
Q6(77,1)=106.901056473
Q6(78,0)=770
Q6(78,1)=106.146546431
Q6(79,0)=780
Q6(79,1)=105.384671075
Q6(80,0)=790
Q6(80,1)=104.615527001
Q6(81,0)=800
Q6(81,1)=103.839211732
Q6(82,0)=810
Q6(82,1)=103.055823696
Q6(83,0)=820
Q6(83,1)=102.265462219
Q6(84,0)=830
Q6(84,1)=101.468227511
Q6(85,0)=840
Q6(85,1)=100.664220656
Q6(86,0)=850
Q6(86,1)=99.8535435916
Q6(87,0)=860
Q6(87,1)=99.0362991058
Q6(88,0)=870
Q6(88,1)=98.212590817
Q6(89,0)=880
Q6(89,1)=97.3825231634
Q6(90,0)=890
Q6(90,1)=96.5462013899
Q6(91,0)=900
Q6(91,1)=95.703731534
Q6(92,0)=910
Q6(92,1)=94.8552204131
Q6(93,0)=920
Q6(93,1)=94.0007756101
Q6(94,0)=930
Q6(94,1)=93.1405054607
Q6(95,0)=940
Q6(95,1)=92.2745190388
Q6(96,0)=950
Q6(96,1)=91.4029261435
Q6(97,0)=960
Q6(97,1)=90.5258372843
Q6(98,0)=970
Q6(98,1)=89.6433636678
Q6(99,0)=980
Q6(99,1)=88.7556171834
Q6(100,0)=990
Q6(100,1)=87.8627103888
Q6(101,0)=1000
Q6(101,1)=86.9647564961
Q6(102,0)=1010
Q6(102,1)=86.0618693574
Q6(103,0)=1020
Q6(103,1)=85.1541634501
Q6(104,0)=1030
Q6(104,1)=84.2417538629
Q6(105,0)=1040
Q6(105,1)=83.3247562805
Q6(106,0)=1050
Q6(106,1)=82.4032869696
Q6(107,0)=1060
Q6(107,1)=81.4774627638
Q6(108,0)=1070
Q6(108,1)=80.5474010486
Q6(109,0)=1080
Q6(109,1)=79.6132197472
Q6(110,0)=1090
Q6(110,1)=78.6750373049
Q6(111,0)=1100
Q6(111,1)=77.7329726743
Q6(112,0)=1110
Q6(112,1)=76.7871453002
Q6(113,0)=1120
Q6(113,1)=75.8376751046
Q6(114,0)=1130
Q6(114,1)=74.8846824713
Q6(115,0)=1140
Q6(115,1)=73.9282882308
Q6(116,0)=1150
Q6(116,1)=72.9686136446
Q6(117,0)=1160
Q6(117,1)=72.0057803906
Q6(118,0)=1170
Q6(118,1)=71.0399105467
Q6(119,0)=1180
Q6(119,1)=70.0711265762
Q6(120,0)=1190
Q6(120,1)=69.0995513116
Q6(121,0)=1200
Q6(121,1)=68.1253079394
Q6(122,0)=1210
Q6(122,1)=67.1485199845
Q6(123,0)=1220
Q6(123,1)=66.1693112944
Q6(124,0)=1230
Q6(124,1)=65.1878060233
Q6(125,0)=1240
Q6(125,1)=64.2041286168
Q6(126,0)=1250
Q6(126,1)=63.218403796
Q6(127,0)=1260
Q6(127,1)=62.2307565413
Q6(128,0)=1270
Q6(128,1)=61.241312077
Q6(129,0)=1280
Q6(129,1)=60.2501958554
Q6(130,0)=1290
Q6(130,1)=59.2575335405
Q6(131,0)=1300
Q6(131,1)=58.2634509925
Q6(132,0)=1310
Q6(132,1)=57.2680742517
Q6(133,0)=1320
Q6(133,1)=56.2715295223
Q6(134,0)=1330
Q6(134,1)=55.2739431569
Q6(135,0)=1340
Q6(135,1)=54.2754416398
Q6(136,0)=1350
Q6(136,1)=53.2761515716
Q6(137,0)=1360
Q6(137,1)=52.2761996527
Q6(138,0)=1370
Q6(138,1)=51.2757126677
Q6(139,0)=1380
Q6(139,1)=50.2748174687
Q6(140,0)=1390
Q6(140,1)=49.2736409598
Q6(141,0)=1400
Q6(141,1)=48.2723100807
Q6(142,0)=1410
Q6(142,1)=48.0561188355
Q6(143,0)=1420
Q6(143,1)=48.0561188355
Q6(144,0)=1430
Q6(144,1)=48.0561188355
Q6(145,0)=1440
Q6(145,1)=48.0561188355
Q6(146,0)=1450
Q6(146,1)=48.0561188355
Q6(147,0)=1460
Q6(147,1)=48.0561188355
Q6(148,0)=1470
Q6(148,1)=48.0561188355
Q6(149,0)=1480
Q6(149,1)=48.0561188355
Q6(150,0)=1490
Q6(150,1)=48.0561188355
Q6(151,0)=1500
Q6(151,1)=48.0561188355
Q6(152,0)=1510
Q6(152,1)=48.0561188355
Q6(153,0)=1520
Q6(153,1)=48.0561188355
Q6(154,0)=1530
Q6(154,1)=48.0561188355
Q6(155,0)=1540
Q6(155,1)=48.0561188355
Q6(156,0)=1550
Q6(156,1)=48.0561188355
Q6(157,0)=1560
Q6(157,1)=48.0561188355
Q6(158,0)=1570
Q6(158,1)=48.0561188355
Q6(159,0)=1580
Q6(159,1)=48.0561188355
Q6(160,0)=1590
Q6(160,1)=48.0561188355
Q6(161,0)=1600
Q6(161,1)=48.0561188355
Q6(162,0)=1610
Q6(162,1)=48.0561188355
Q6(163,0)=1620
Q6(163,1)=48.0561188355
Q6(164,0)=1630
Q6(164,1)=48.0561188355
Q6(165,0)=1640
Q6(165,1)=48.0561188355
Q6(166,0)=1650
Q6(166,1)=48.0561188355
Q6(167,0)=1660
Q6(167,1)=48.0561188355
Q6(168,0)=1670
Q6(168,1)=48.0561188355
Q6(169,0)=1680
Q6(169,1)=48.0561188355
Q6(170,0)=1690
Q6(170,1)=48.0561188355
Q6(171,0)=1700
Q6(171,1)=48.0561188355
Q6(172,0)=1710
Q6(172,1)=48.0561188355
Q6(173,0)=1720
Q6(173,1)=48.0561188355
Q6(174,0)=1730
Q6(174,1)=48.0561188355
Q6(175,0)=1740
Q6(175,1)=48.0561188355
Q6(176,0)=1750
Q6(176,1)=48.0561188355
Q6(177,0)=1760
Q6(177,1)=48.0561188355
Q6(178,0)=1770
Q6(178,1)=48.0561188355
Q6(179,0)=1780
Q6(179,1)=48.0561188355
Q6(180,0)=1790
Q6(180,1)=48.0561188355
Q6(181,0)=1800
Q6(181,1)=48.0561188355
Q6(182,0)=1810
Q6(182,1)=48.0561188355
Q6(183,0)=1820
Q6(183,1)=48.0561188355
Q6(184,0)=1830
Q6(184,1)=48.0561188355
Q6(185,0)=1840
Q6(185,1)=48.0561188355
Q6(186,0)=1850
Q6(186,1)=48.0561188355
Q6(187,0)=1860
Q6(187,1)=48.0561188355
Q6(188,0)=1870
Q6(188,1)=48.0561188355
Q6(189,0)=1880
Q6(189,1)=48.0561188355
Q6(190,0)=1890
Q6(190,1)=48.0561188355
Q6(191,0)=1900
Q6(191,1)=48.0561188355
Q6(192,0)=1910
Q6(192,1)=48.0561188355
Q6(193,0)=1920
Q6(193,1)=48.0561188355
Q6(194,0)=1930
Q6(194,1)=48.0561188355
Q6(195,0)=1940
Q6(195,1)=48.0561188355
Q6(196,0)=1950
Q6(196,1)=48.0561188355
Q6(197,0)=1960
Q6(197,1)=48.0561188355
Q6(198,0)=1970
Q6(198,1)=48.0561188355
Q6(199,0)=1980
Q6(199,1)=48.0561188355
Q6(200,0)=1990
Q6(200,1)=48.0561188355
Q6(201,0)=2000
Q6(201,1)=48.0561188355
Q6(202,0)=2010
Q6(202,1)=48.0561188355
Q6(203,0)=2020
Q6(203,1)=48.0561188355
Q6(204,0)=2030
Q6(204,1)=48.0561188355
Q6(205,0)=2040
Q6(205,1)=48.0561188355
Q6(206,0)=2050
Q6(206,1)=48.0561188355
Q6(207,0)=2060
Q6(207,1)=48.0561188355
Q6(208,0)=2070
Q6(208,1)=48.0561188355
Q6(209,0)=2080
Q6(209,1)=48.0561188355
Q6(210,0)=2090
Q6(210,1)=48.0561188355
Q6(211,0)=2100
Q6(211,1)=48.0561188355
Q6(212,0)=2110
Q6(212,1)=48.0561188355
Q6(213,0)=2120
Q6(213,1)=48.0561188355
Q6(214,0)=2130
Q6(214,1)=48.0561188355
Q6(215,0)=2140
Q6(215,1)=48.0561188355
Q6(216,0)=2150
Q6(216,1)=48.0561188355
Q6(217,0)=2160
Q6(217,1)=48.0561188355
Q6(218,0)=2170
Q6(218,1)=48.0561188355
Q6(219,0)=2180
Q6(219,1)=48.0561188355
Q6(220,0)=2190
Q6(220,1)=48.0561188355
Q6(221,0)=2200
Q6(221,1)=48.0561188355
Q6(222,0)=2210
Q6(222,1)=48.0561188355
Q6(223,0)=2220
Q6(223,1)=48.0561188355
Q6(224,0)=2230
Q6(224,1)=48.0561188355
Q6(225,0)=2240
Q6(225,1)=48.0561188355
Q6(226,0)=2250
Q6(226,1)=48.0561188355
Q6(227,0)=2260
Q6(227,1)=48.0561188355
Q6(228,0)=2270
Q6(228,1)=48.0561188355
Q6(229,0)=2280
Q6(229,1)=48.0561188355
Q6(230,0)=2290
Q6(230,1)=48.0561188355
Q6(231,0)=2300
Q6(231,1)=48.0561188355
Q6(232,0)=2310
Q6(232,1)=48.0561188355
Q6(233,0)=2320
Q6(233,1)=48.0561188355
Q6(234,0)=2330
Q6(234,1)=48.0561188355
Q6(235,0)=2340
Q6(235,1)=48.0561188355
Q6(236,0)=2350
Q6(236,1)=48.0561188355
Q6(237,0)=2360
Q6(237,1)=48.0561188355
Q6(238,0)=2370
Q6(238,1)=48.0561188355
Q6(239,0)=2380
Q6(239,1)=48.0561188355
Q6(240,0)=2390
Q6(240,1)=48.0561188355
Q6(241,0)=2400
Q6(241,1)=48.0561188355
Q6(242,0)=2410
Q6(242,1)=48.0561188355
Q6(243,0)=2420
Q6(243,1)=48.0561188355
Q6(244,0)=2430
Q6(244,1)=48.0561188355
Q6(245,0)=2440
Q6(245,1)=48.0561188355
Q6(246,0)=2450
Q6(246,1)=48.0561188355
Q6(247,0)=2460
Q6(247,1)=48.0561188355
Q6(248,0)=2470
Q6(248,1)=48.0561188355
Q6(249,0)=2480
Q6(249,1)=48.0561188355
Q6(250,0)=2490
Q6(250,1)=48.0561188355
Q6(251,0)=2500
Q6(251,1)=48.0561188355
Q6(252,0)=2510
Q6(252,1)=48.0561188355
Q6(253,0)=2520
Q6(253,1)=48.0561188355
Q6(254,0)=2530
Q6(254,1)=48.0561188355
Q6(255,0)=2540
Q6(255,1)=48.0561188355
Q6(256,0)=2550
Q6(256,1)=48.0561188355
Q6(257,0)=2560
Q6(257,1)=48.0561188355
Q6(258,0)=2570
Q6(258,1)=48.0561188355
Q6(259,0)=2580
Q6(259,1)=48.0561188355
Q6(260,0)=2590
Q6(260,1)=48.0561188355
Q6(261,0)=2600
Q6(261,1)=48.0561188355
Q6(262,0)=2610
Q6(262,1)=48.0561188355
Q6(263,0)=2620
Q6(263,1)=48.0561188355
Q6(264,0)=2630
Q6(264,1)=48.0561188355
Q6(265,0)=2640
Q6(265,1)=48.0561188355
Q6(266,0)=2650
Q6(266,1)=48.0561188355
Q6(267,0)=2660
Q6(267,1)=48.0561188355
Q6(268,0)=2670
Q6(268,1)=48.0561188355
Q6(269,0)=2680
Q6(269,1)=48.0561188355
Q6(270,0)=2690
Q6(270,1)=48.0561188355
Q6(271,0)=2700
Q6(271,1)=48.0561188355
Q6(272,0)=2710
Q6(272,1)=48.0561188355
Q6(273,0)=2720
Q6(273,1)=48.0561188355
Q6(274,0)=2730
Q6(274,1)=48.0561188355
Q6(275,0)=2740
Q6(275,1)=48.0561188355
Q6(276,0)=2750
Q6(276,1)=48.0561188355
Q6(277,0)=2760
Q6(277,1)=48.0561188355
Q6(278,0)=2770
Q6(278,1)=48.0561188355
Q6(279,0)=2780
Q6(279,1)=48.0561188355
Q6(280,0)=2790
Q6(280,1)=48.0561188355
Q6(281,0)=2800
Q6(281,1)=48.0561188355
Q6(282,0)=2810
Q6(282,1)=48.0561188355
Q6(283,0)=2820
Q6(283,1)=48.0561188355
Q6(284,0)=2830
Q6(284,1)=48.0561188355
Q6(285,0)=2840
Q6(285,1)=48.0561188355
Q6(286,0)=2850
Q6(286,1)=48.0561188355
Q6(287,0)=2860
Q6(287,1)=48.0561188355
Q6(288,0)=2870
Q6(288,1)=48.0561188355
Q6(289,0)=2880
Q6(289,1)=48.0561188355
Q6(290,0)=2890
Q6(290,1)=48.0561188355
Q6(291,0)=2900
Q6(291,1)=48.0561188355
Q6(292,0)=2910
Q6(292,1)=48.0561188355
Q6(293,0)=2920
Q6(293,1)=48.0561188355
Q6(294,0)=2930
Q6(294,1)=48.0561188355
Q6(295,0)=2940
Q6(295,1)=48.0561188355
Q6(296,0)=2950
Q6(296,1)=48.0561188355
Q6(297,0)=2960
Q6(297,1)=48.0561188355
Q6(298,0)=2970
Q6(298,1)=48.0561188355
Q6(299,0)=2980
Q6(299,1)=48.0561188355
Q6(300,0)=2990
Q6(300,1)=48.0561188355
Q6(301,0)=3000
Q6(301,1)=48.0561188355
Q6(302,0)=3010
Q6(302,1)=48.0561188355
Q6(303,0)=3020
Q6(303,1)=48.0561188355
Q6(304,0)=3030
Q6(304,1)=48.0561188355
Q6(305,0)=3040
Q6(305,1)=48.0561188355
Q6(306,0)=3050
Q6(306,1)=48.0561188355
Q6(307,0)=3060
Q6(307,1)=48.0561188355
Q6(308,0)=3070
Q6(308,1)=48.0561188355
Q6(309,0)=3080
Q6(309,1)=48.0561188355
Q6(310,0)=3090
Q6(310,1)=48.0561188355
Q6(311,0)=3100
Q6(311,1)=48.0561188355
Q6(312,0)=3110
Q6(312,1)=48.0561188355
Q6(313,0)=3120
Q6(313,1)=48.0561188355
Q6(314,0)=3130
Q6(314,1)=48.0561188355
Q6(315,0)=3140
Q6(315,1)=48.0561188355
Q6(316,0)=3150
Q6(316,1)=48.0561188355
Q6(317,0)=3160
Q6(317,1)=48.0561188355
Q6(318,0)=3170
Q6(318,1)=48.0561188355
Q6(319,0)=3180
Q6(319,1)=48.0561188355
Q6(320,0)=3190
Q6(320,1)=48.0561188355
Q6(321,0)=3200
Q6(321,1)=48.0561188355
Q6(322,0)=3210
Q6(322,1)=48.0561188355
Q6(323,0)=3220
Q6(323,1)=48.0561188355
Q6(324,0)=3230
Q6(324,1)=48.0561188355
Q6(325,0)=3240
Q6(325,1)=48.0561188355
Q6(326,0)=3250
Q6(326,1)=48.0561188355
Q6(327,0)=3260
Q6(327,1)=48.0561188355
Q6(328,0)=3270
Q6(328,1)=48.0561188355
Q6(329,0)=3280
Q6(329,1)=48.0561188355
Q6(330,0)=3290
Q6(330,1)=48.0561188355
Q6(331,0)=3300
Q6(331,1)=48.0561188355
Q6(332,0)=3310
Q6(332,1)=48.0561188355
Q6(333,0)=3320
Q6(333,1)=48.0561188355
Q6(334,0)=3330
Q6(334,1)=48.0561188355
Q6(335,0)=3340
Q6(335,1)=48.0561188355
Q6(336,0)=3350
Q6(336,1)=48.0561188355
Q6(337,0)=3360
Q6(337,1)=48.0561188355
Q6(338,0)=3370
Q6(338,1)=48.0561188355
Q6(339,0)=3380
Q6(339,1)=48.0561188355
Q6(340,0)=3390
Q6(340,1)=48.0561188355
Q6(341,0)=3400
Q6(341,1)=48.0561188355
Q6(342,0)=3410
Q6(342,1)=48.0561188355
Q6(343,0)=3420
Q6(343,1)=48.0561188355
Q6(344,0)=3430
Q6(344,1)=48.0561188355
Q6(345,0)=3440
Q6(345,1)=48.0561188355
Q6(346,0)=3450
Q6(346,1)=48.0561188355
Q6(347,0)=3460
Q6(347,1)=48.0561188355
Q6(348,0)=3470
Q6(348,1)=48.0561188355
Q6(349,0)=3480
Q6(349,1)=48.0561188355
Q6(350,0)=3490
Q6(350,1)=48.0561188355
Q6(351,0)=3500
Q6(351,1)=48.0561188355
Q6(352,0)=3510
Q6(352,1)=48.0561188355
Q6(353,0)=3520
Q6(353,1)=48.0561188355
Q6(354,0)=3530
Q6(354,1)=48.0561188355
Q6(355,0)=3540
Q6(355,1)=48.0561188355
Q6(356,0)=3550
Q6(356,1)=48.0561188355
Q6(357,0)=3560
Q6(357,1)=48.0561188355
Q6(358,0)=3570
Q6(358,1)=48.0561188355
Q6(359,0)=3580
Q6(359,1)=48.0561188355
Q6(360,0)=3590
Q6(360,1)=48.0561188355
Q6(361,0)=3600
Q6(361,1)=48.0561188355
Q6(362,0)=3610
Q6(362,1)=48.0561188355
Q6(363,0)=3620
Q6(363,1)=48.0561188355
Q6(364,0)=3630
Q6(364,1)=48.0561188355
Q6(365,0)=3640
Q6(365,1)=48.0561188355
Q6(366,0)=3650
Q6(366,1)=48.0561188355
Q6(367,0)=3660
Q6(367,1)=48.0561188355
Q6(368,0)=3670
Q6(368,1)=48.0561188355
Q6(369,0)=3680
Q6(369,1)=48.0561188355
Q6(370,0)=3690
Q6(370,1)=48.0561188355
Q6(371,0)=3700
Q6(371,1)=48.0561188355
Q6(372,0)=3710
Q6(372,1)=48.0561188355
Q6(373,0)=3720
Q6(373,1)=48.0561188355
Q6(374,0)=3730
Q6(374,1)=48.0561188355
Q6(375,0)=3740
Q6(375,1)=48.0561188355
Q6(376,0)=3750
Q6(376,1)=48.0561188355
Q6(377,0)=3760
Q6(377,1)=48.0561188355
Q6(378,0)=3770
Q6(378,1)=48.0561188355
Q6(379,0)=3780
Q6(379,1)=48.0561188355
Q6(380,0)=3790
Q6(380,1)=48.0561188355
Q6(381,0)=3800
Q6(381,1)=48.0561188355
Q6(382,0)=3810
Q6(382,1)=48.0561188355
Q6(383,0)=3820
Q6(383,1)=48.0561188355
Q6(384,0)=3830
Q6(384,1)=48.0561188355
Q6(385,0)=3840
Q6(385,1)=48.0561188355
Q6(386,0)=3850
Q6(386,1)=48.0561188355
Q6(387,0)=3860
Q6(387,1)=48.0561188355
Q6(388,0)=3870
Q6(388,1)=48.0561188355
Q6(389,0)=3880
Q6(389,1)=48.0561188355
Q6(390,0)=3890
Q6(390,1)=48.0561188355
Q6(391,0)=3900
Q6(391,1)=48.0561188355
Q6(392,0)=3910
Q6(392,1)=48.0561188355
Q6(393,0)=3920
Q6(393,1)=48.0561188355
Q6(394,0)=3930
Q6(394,1)=48.0561188355
Q6(395,0)=3940
Q6(395,1)=48.0561188355
Q6(396,0)=3950
Q6(396,1)=48.0561188355
Q6(397,0)=3960
Q6(397,1)=48.0561188355
Q6(398,0)=3970
Q6(398,1)=48.0561188355
Q6(399,0)=3980
Q6(399,1)=48.0561188355
Q6(400,0)=3990
Q6(400,1)=48.0561188355
Q6(401,0)=4000
Q6(401,1)=48.0561188355
Q6(402,0)=4010
Q6(402,1)=48.0561188355
Q6(403,0)=4020
Q6(403,1)=48.0561188355
Q6(404,0)=4030
Q6(404,1)=48.0561188355
Q6(405,0)=4040
Q6(405,1)=48.0561188355
Q6(406,0)=4050
Q6(406,1)=48.0561188355
Q6(407,0)=4060
Q6(407,1)=48.0561188355
Q6(408,0)=4070
Q6(408,1)=48.0561188355
Q6(409,0)=4080
Q6(409,1)=48.0561188355
Q6(410,0)=4090
Q6(410,1)=48.0561188355
Q6(411,0)=4100
Q6(411,1)=48.0561188355
Q6(412,0)=4110
Q6(412,1)=48.0561188355
Q6(413,0)=4120
Q6(413,1)=48.0561188355
Q6(414,0)=4130
Q6(414,1)=48.0561188355
Q6(415,0)=4140
Q6(415,1)=48.0561188355
Q6(416,0)=4150
Q6(416,1)=48.0561188355
Q6(417,0)=4160
Q6(417,1)=48.0561188355
Q6(418,0)=4170
Q6(418,1)=48.0561188355
Q6(419,0)=4180
Q6(419,1)=48.0561188355
Q6(420,0)=4190
Q6(420,1)=48.0561188355
Q6(421,0)=4200
Q6(421,1)=48.8412858804
Q6(422,0)=4210
Q6(422,1)=49.8425446189
Q6(423,0)=4220
Q6(423,1)=50.8435768554
Q6(424,0)=4230
Q6(424,1)=51.8442556688
Q6(425,0)=4240
Q6(425,1)=52.8444541824
Q6(426,0)=4250
Q6(426,1)=53.8440455804
Q6(427,0)=4260
Q6(427,1)=54.8429031243
Q6(428,0)=4270
Q6(428,1)=55.8409001684
Q6(429,0)=4280
Q6(429,1)=56.837910176
Q6(430,0)=4290
Q6(430,1)=57.8338067358
Q6(431,0)=4300
Q6(431,1)=58.8284635776
Q6(432,0)=4310
Q6(432,1)=59.8217545884
Q6(433,0)=4320
Q6(433,1)=60.8135538281
Q6(434,0)=4330
Q6(434,1)=61.8037355462
Q6(435,0)=4340
Q6(435,1)=62.7921741969
Q6(436,0)=4350
Q6(436,1)=63.7787444556
Q6(437,0)=4360
Q6(437,1)=64.7633212346
Q6(438,0)=4370
Q6(438,1)=65.7457796989
Q6(439,0)=4380
Q6(439,1)=66.7259952821
Q6(440,0)=4390
Q6(440,1)=67.7038437021
Q6(441,0)=4400
Q6(441,1)=68.679200977
Q6(442,0)=4410
Q6(442,1)=69.6519434408
Q6(443,0)=4420
Q6(443,1)=70.621947759
Q6(444,0)=4430
Q6(444,1)=71.5890909443
Q6(445,0)=4440
Q6(445,1)=72.553250372
Q6(446,0)=4450
Q6(446,1)=73.5143037958
Q6(447,0)=4460
Q6(447,1)=74.4721293634
Q6(448,0)=4470
Q6(448,1)=75.4266056316
Q6(449,0)=4480
Q6(449,1)=76.3776115818
Q6(450,0)=4490
Q6(450,1)=77.3250266354
Q6(451,0)=4500
Q6(451,1)=78.2687306693
Q6(452,0)=4510
Q6(452,1)=79.2086040307
Q6(453,0)=4520
Q6(453,1)=80.1445275526
Q6(454,0)=4530
Q6(454,1)=81.0763825688
Q6(455,0)=4540
Q6(455,1)=82.0040509289
Q6(456,0)=4550
Q6(456,1)=82.9274150134
Q6(457,0)=4560
Q6(457,1)=83.8463577484
Q6(458,0)=4570
Q6(458,1)=84.7607626208
Q6(459,0)=4580
Q6(459,1)=85.6705136926
Q6(460,0)=4590
Q6(460,1)=86.5754956161
Q6(461,0)=4600
Q6(461,1)=87.4755936482
Q6(462,0)=4610
Q6(462,1)=88.370693665
Q6(463,0)=4620
Q6(463,1)=89.2606821762
Q6(464,0)=4630
Q6(464,1)=90.1454463398
Q6(465,0)=4640
Q6(465,1)=91.0248739761
Q6(466,0)=4650
Q6(466,1)=91.898853582
Q6(467,0)=4660
Q6(467,1)=92.7672743452
Q6(468,0)=4670
Q6(468,1)=93.6300261582
Q6(469,0)=4680
Q6(469,1)=94.4869996322
Q6(470,0)=4690
Q6(470,1)=95.3380861111
Q6(471,0)=4700
Q6(471,1)=96.1831776852
Q6(472,0)=4710
Q6(472,1)=97.022167205
Q6(473,0)=4720
Q6(473,1)=97.8549482946
Q6(474,0)=4730
Q6(474,1)=98.6814153651
Q6(475,0)=4740
Q6(475,1)=99.5014636284
Q6(476,0)=4750
Q6(476,1)=100.31498911
Q6(477,0)=4760
Q6(477,1)=101.121888663
Q6(478,0)=4770
Q6(478,1)=101.92205998
Q6(479,0)=4780
Q6(479,1)=102.715401607
Q6(480,0)=4790
Q6(480,1)=103.501812955
Q6(481,0)=4800
Q6(481,1)=104.281194316
Q6(482,0)=4810
Q6(482,1)=105.05344687
Q6(483,0)=4820
Q6(483,1)=105.818472705
Q6(484,0)=4830
Q6(484,1)=106.576174821
Q6(485,0)=4840
Q6(485,1)=107.326457149
Q6(486,0)=4850
Q6(486,1)=108.06922456
Q6(487,0)=4860
Q6(487,1)=108.80438288
Q6(488,0)=4870
Q6(488,1)=109.531838896
Q6(489,0)=4880
Q6(489,1)=110.251500374
Q6(490,0)=4890
Q6(490,1)=110.963276068
Q6(491,0)=4900
Q6(491,1)=111.667075731
Q6(492,0)=4910
Q6(492,1)=112.362810129
Q6(493,0)=4920
Q6(493,1)=113.050391048
Q6(494,0)=4930
Q6(494,1)=113.729731311
Q6(495,0)=4940
Q6(495,1)=114.400744782
Q6(496,0)=4950
Q6(496,1)=115.063346385
Q6(497,0)=4960
Q6(497,1)=115.717452107
Q6(498,0)=4970
Q6(498,1)=116.362979014
Q6(499,0)=4980
Q6(499,1)=116.999845259
Q6(500,0)=4990
Q6(500,1)=117.627970095
Q6(501,0)=5000
Q6(501,1)=118.247273879
Q6(502,0)=5010
Q6(502,1)=118.857678091
Q6(503,0)=5020
Q6(503,1)=119.459105338
Q6(504,0)=5030
Q6(504,1)=120.051479363
Q6(505,0)=5040
Q6(505,1)=120.63472506
Q6(506,0)=5050
Q6(506,1)=121.208768478
Q6(507,0)=5060
Q6(507,1)=121.773536835
Q6(508,0)=5070
Q6(508,1)=122.328958522
Q6(509,0)=5080
Q6(509,1)=122.874963118
Q6(510,0)=5090
Q6(510,1)=123.411481395
Q6(511,0)=5100
Q6(511,1)=123.938445327
Q6(512,0)=5110
Q6(512,1)=124.4557881
Q6(513,0)=5120
Q6(513,1)=124.96344412
Q6(514,0)=5130
Q6(514,1)=125.461349021
Q6(515,0)=5140
Q6(515,1)=125.949439673
Q6(516,0)=5150
Q6(516,1)=126.427654191
Q6(517,0)=5160
Q6(517,1)=126.895931942
Q6(518,0)=5170
Q6(518,1)=127.354213554
Q6(519,0)=5180
Q6(519,1)=127.802440919
Q6(520,0)=5190
Q6(520,1)=128.240557207
Q6(521,0)=5200
Q6(521,1)=128.66850687
Q6(522,0)=5210
Q6(522,1)=129.086235647
Q6(523,0)=5220
Q6(523,1)=129.493690574
Q6(524,0)=5230
Q6(524,1)=129.890819989
Q6(525,0)=5240
Q6(525,1)=130.277573541
Q6(526,0)=5250
Q6(526,1)=130.653902193
Q6(527,0)=5260
Q6(527,1)=131.01975823
Q6(528,0)=5270
Q6(528,1)=131.375095264
Q6(529,0)=5280
Q6(529,1)=131.719868243
Q6(530,0)=5290
Q6(530,1)=132.054033453
Q6(531,0)=5300
Q6(531,1)=132.377548524
Q6(532,0)=5310
Q6(532,1)=132.690372438
Q6(533,0)=5320
Q6(533,1)=132.992465532
Q6(534,0)=5330
Q6(534,1)=133.283789502
Q6(535,0)=5340
Q6(535,1)=133.564307414
Q6(536,0)=5350
Q6(536,1)=133.833983698
Q6(537,0)=5360
Q6(537,1)=134.092784163
Q6(538,0)=5370
Q6(538,1)=134.340675995
Q6(539,0)=5380
Q6(539,1)=134.577627764
Q6(540,0)=5390
Q6(540,1)=134.803609427
Q6(541,0)=5400
Q6(541,1)=135.018592332
Q6(542,0)=5410
Q6(542,1)=135.22254922
Q6(543,0)=5420
Q6(543,1)=135.415454231
Q6(544,0)=5430
Q6(544,1)=135.597282908
Q6(545,0)=5440
Q6(545,1)=135.768012197
Q6(546,0)=5450
Q6(546,1)=135.927620449
Q6(547,0)=5460
Q6(547,1)=136.076087429
Q6(548,0)=5470
Q6(548,1)=136.213394312
Q6(549,0)=5480
Q6(549,1)=136.339523689
Q6(550,0)=5490
Q6(550,1)=136.454459568
Q6(551,0)=5500
Q6(551,1)=136.558187377
Q6(552,0)=5510
Q6(552,1)=136.650693963
Q6(553,0)=5520
Q6(553,1)=136.731967598
Q6(554,0)=5530
Q6(554,1)=136.801997976
Q6(555,0)=5540
Q6(555,1)=136.860776219
Q6(556,0)=5550
Q6(556,1)=136.908294875
Q6(557,0)=5560
Q6(557,1)=136.944547917
Q6(558,0)=5570
Q6(558,1)=136.969530751
Q6(559,0)=5580
Q6(559,1)=136.983240207
Q6(560,0)=5590
Q6(560,1)=136.985674549
Q6(561,0)=5600
Q6(561,1)=136.976833466
Q6(562,0)=5610
Q6(562,1)=136.956718081
Q6(563,0)=5620
Q6(563,1)=136.925330943
Q6(564,0)=5630
Q6(564,1)=136.882676033
Q6(565,0)=5640
Q6(565,1)=136.828758758
Q6(566,0)=5650
Q6(566,1)=136.763585955
Q6(567,0)=5660
Q6(567,1)=136.687165887
Q6(568,0)=5670
Q6(568,1)=136.599508243
Q6(569,0)=5680
Q6(569,1)=136.500624138
Q6(570,0)=5690
Q6(570,1)=136.390526108
Q6(571,0)=5700
Q6(571,1)=136.269228114
Q6(572,0)=5710
Q6(572,1)=136.136745535
Q6(573,0)=5720
Q6(573,1)=135.993095169
Q6(574,0)=5730
Q6(574,1)=135.838295228
Q6(575,0)=5740
Q6(575,1)=135.67236534
Q6(576,0)=5750
Q6(576,1)=135.495326543
Q6(577,0)=5760
Q6(577,1)=135.307201285
Q6(578,0)=5770
Q6(578,1)=135.108013418
Q6(579,0)=5780
Q6(579,1)=134.897788196
Q6(580,0)=5790
Q6(580,1)=134.676552275
Q6(581,0)=5800
Q6(581,1)=134.444333705
Q6(582,0)=5810
Q6(582,1)=134.201161929
Q6(583,0)=5820
Q6(583,1)=133.947067779
Q6(584,0)=5830
Q6(584,1)=133.682083472
Q6(585,0)=5840
Q6(585,1)=133.406242605
Q6(586,0)=5850
Q6(586,1)=133.119580152
Q6(587,0)=5860
Q6(587,1)=132.82213246
Q6(588,0)=5870
Q6(588,1)=132.513937241
Q6(589,0)=5880
Q6(589,1)=132.195033573
Q6(590,0)=5890
Q6(590,1)=131.865461888
Q6(591,0)=5900
Q6(591,1)=131.525263974
Q6(592,0)=5910
Q6(592,1)=131.174482965
Q6(593,0)=5920
Q6(593,1)=130.813163336
Q6(594,0)=5930
Q6(594,1)=130.441350899
Q6(595,0)=5940
Q6(595,1)=130.059092796
Q6(596,0)=5950
Q6(596,1)=129.666437495
Q6(597,0)=5960
Q6(597,1)=129.263434779
Q6(598,0)=5970
Q6(598,1)=128.850135747
Q6(599,0)=5980
Q6(599,1)=128.4265928
Q6(600,0)=5990
Q6(600,1)=127.992859639
Q6(601,0)=6000
Q6(601,1)=127.548991258
Q6(602,0)=6010
Q6(602,1)=127.095043936
Q6(603,0)=6020
Q6(603,1)=126.631075227
Q6(604,0)=6030
Q6(604,1)=126.15714396
Q6(605,0)=6040
Q6(605,1)=125.673310224
Q6(606,0)=6050
Q6(606,1)=125.179635365
Q6(607,0)=6060
Q6(607,1)=124.676181976
Q6(608,0)=6070
Q6(608,1)=124.163013889
Q6(609,0)=6080
Q6(609,1)=123.640196171
Q6(610,0)=6090
Q6(610,1)=123.107795109
Q6(611,0)=6100
Q6(611,1)=122.565878207
Q6(612,0)=6110
Q6(612,1)=122.014514174
Q6(613,0)=6120
Q6(613,1)=121.453772919
Q6(614,0)=6130
Q6(614,1)=120.883725537
Q6(615,0)=6140
Q6(615,1)=120.304444306
Q6(616,0)=6150
Q6(616,1)=119.716002673
Q6(617,0)=6160
Q6(617,1)=119.118475247
Q6(618,0)=6170
Q6(618,1)=118.511937788
Q6(619,0)=6180
Q6(619,1)=117.8964672
Q6(620,0)=6190
Q6(620,1)=117.272141519
Q6(621,0)=6200
Q6(621,1)=116.639039903
Q6(622,0)=6210
Q6(622,1)=115.997242623
Q6(623,0)=6220
Q6(623,1)=115.346831054
Q6(624,0)=6230
Q6(624,1)=114.68788766
Q6(625,0)=6240
Q6(625,1)=114.020495991
Q6(626,0)=6250
Q6(626,1)=113.344740665
Q6(627,0)=6260
Q6(627,1)=112.660707361
Q6(628,0)=6270
Q6(628,1)=111.968482808
Q6(629,0)=6280
Q6(629,1)=111.268154774
Q6(630,0)=6290
Q6(630,1)=110.559812054
Q6(631,0)=6300
Q6(631,1)=109.843544459
Q6(632,0)=6310
Q6(632,1)=109.119442804
Q6(633,0)=6320
Q6(633,1)=108.387598899
Q6(634,0)=6330
Q6(634,1)=107.648105536
Q6(635,0)=6340
Q6(635,1)=106.901056473
Q6(636,0)=6350
Q6(636,1)=106.146546431
Q6(637,0)=6360
Q6(637,1)=105.384671075
Q6(638,0)=6370
Q6(638,1)=104.615527001
Q6(639,0)=6380
Q6(639,1)=103.839211732
Q6(640,0)=6390
Q6(640,1)=103.055823696
Q6(641,0)=6400
Q6(641,1)=102.265462219
Q6(642,0)=6410
Q6(642,1)=101.468227511
Q6(643,0)=6420
Q6(643,1)=100.664220656
Q6(644,0)=6430
Q6(644,1)=99.8535435916
Q6(645,0)=6440
Q6(645,1)=99.0362991058
Q6(646,0)=6450
Q6(646,1)=98.212590817
Q6(647,0)=6460
Q6(647,1)=97.3825231634
Q6(648,0)=6470
Q6(648,1)=96.5462013899
Q6(649,0)=6480
Q6(649,1)=95.703731534
Q6(650,0)=6490
Q6(650,1)=94.8552204131
Q6(651,0)=6500
Q6(651,1)=94.0007756101
Q6(652,0)=6510
Q6(652,1)=93.1405054607
Q6(653,0)=6520
Q6(653,1)=92.2745190388
Q6(654,0)=6530
Q6(654,1)=91.4029261435
Q6(655,0)=6540
Q6(655,1)=90.5258372843
Q6(656,0)=6550
Q6(656,1)=89.6433636678
Q6(657,0)=6560
Q6(657,1)=88.7556171834
Q6(658,0)=6570
Q6(658,1)=87.8627103888
Q6(659,0)=6580
Q6(659,1)=86.9647564961
Q6(660,0)=6590
Q6(660,1)=86.0618693574
Q6(661,0)=6600
Q6(661,1)=85.1541634501
Q6(662,0)=6610
Q6(662,1)=84.2417538629
Q6(663,0)=6620
Q6(663,1)=83.3247562805
Q6(664,0)=6630
Q6(664,1)=82.4032869696
Q6(665,0)=6640
Q6(665,1)=81.4774627638
Q6(666,0)=6650
Q6(666,1)=80.5474010486
Q6(667,0)=6660
Q6(667,1)=79.6132197472
Q6(668,0)=6670
Q6(668,1)=78.6750373049
Q6(669,0)=6680
Q6(669,1)=77.7329726743
Q6(670,0)=6690
Q6(670,1)=76.7871453002
Q6(671,0)=6700
Q6(671,1)=75.8376751046
Q6(672,0)=6710
Q6(672,1)=74.8846824713
Q6(673,0)=6720
Q6(673,1)=73.9282882308
Q6(674,0)=6730
Q6(674,1)=72.9686136446
Q6(675,0)=6740
Q6(675,1)=72.0057803906
Q6(676,0)=6750
Q6(676,1)=71.0399105467
Q6(677,0)=6760
Q6(677,1)=70.0711265762
Q6(678,0)=6770
Q6(678,1)=69.0995513116
Q6(679,0)=6780
Q6(679,1)=68.1253079394
Q6(680,0)=6790
Q6(680,1)=67.1485199845
Q6(681,0)=6800
Q6(681,1)=66.1693112944
Q6(682,0)=6810
Q6(682,1)=65.1878060233
Q6(683,0)=6820
Q6(683,1)=64.2041286168
Q6(684,0)=6830
Q6(684,1)=63.218403796
Q6(685,0)=6840
Q6(685,1)=62.2307565413
Q6(686,0)=6850
Q6(686,1)=61.241312077
Q6(687,0)=6860
Q6(687,1)=60.2501958554
Q6(688,0)=6870
Q6(688,1)=59.2575335405
Q6(689,0)=6880
Q6(689,1)=58.2634509925
Q6(690,0)=6890
Q6(690,1)=57.2680742517
Q6(691,0)=6900
Q6(691,1)=56.2715295223
Q6(692,0)=6910
Q6(692,1)=55.2739431569
Q6(693,0)=6920
Q6(693,1)=54.2754416398
Q6(694,0)=6930
Q6(694,1)=53.2761515716
Q6(695,0)=6940
Q6(695,1)=52.2761996527
Q6(696,0)=6950
Q6(696,1)=51.2757126677
Q6(697,0)=6960
Q6(697,1)=50.2748174687
Q6(698,0)=6970
Q6(698,1)=49.2736409598
Q6(699,0)=6980
Q6(699,1)=48.2723100807
Q6(700,0)=6990
Q6(700,1)=48.0561188355
Q6(701,0)=7000
Q6(701,1)=48.0561188355
Q6(702,0)=7010
Q6(702,1)=48.0561188355
Q6(703,0)=7020
Q6(703,1)=48.0561188355
Q6(704,0)=7030
Q6(704,1)=48.0561188355
Q6(705,0)=7040
Q6(705,1)=48.0561188355
Q6(706,0)=7050
Q6(706,1)=48.0561188355
Q6(707,0)=7060
Q6(707,1)=48.0561188355
Q6(708,0)=7070
Q6(708,1)=48.0561188355
Q6(709,0)=7080
Q6(709,1)=48.0561188355
Q6(710,0)=7090
Q6(710,1)=48.0561188355
Q6(711,0)=7100
Q6(711,1)=48.0561188355
Q6(712,0)=7110
Q6(712,1)=48.0561188355
Q6(713,0)=7120
Q6(713,1)=48.0561188355
Q6(714,0)=7130
Q6(714,1)=48.0561188355
Q6(715,0)=7140
Q6(715,1)=48.0561188355
Q6(716,0)=7150
Q6(716,1)=48.0561188355
Q6(717,0)=7160
Q6(717,1)=48.0561188355
Q6(718,0)=7170
Q6(718,1)=48.0561188355
Q6(719,0)=7180
Q6(719,1)=48.0561188355
Q6(720,0)=7190
Q6(720,1)=48.0561188355
Q6(721,0)=7200
Q6(721,1)=48.0561188355
Q6(722,0)=7210
Q6(722,1)=48.0561188355
Q6(723,0)=7220
Q6(723,1)=48.0561188355
Q6(724,0)=7230
Q6(724,1)=48.0561188355
Q6(725,0)=7240
Q6(725,1)=48.0561188355
Q6(726,0)=7250
Q6(726,1)=48.0561188355
Q6(727,0)=7260
Q6(727,1)=48.0561188355
Q6(728,0)=7270
Q6(728,1)=48.0561188355
Q6(729,0)=7280
Q6(729,1)=48.0561188355
Q6(730,0)=7290
Q6(730,1)=48.0561188355
Q6(731,0)=7300
Q6(731,1)=48.0561188355
Q6(732,0)=7310
Q6(732,1)=48.0561188355
Q6(733,0)=7320
Q6(733,1)=48.0561188355
Q6(734,0)=7330
Q6(734,1)=48.0561188355
Q6(735,0)=7340
Q6(735,1)=48.0561188355
Q6(736,0)=7350
Q6(736,1)=48.0561188355
Q6(737,0)=7360
Q6(737,1)=48.0561188355
Q6(738,0)=7370
Q6(738,1)=48.0561188355
Q6(739,0)=7380
Q6(739,1)=48.0561188355
Q6(740,0)=7390
Q6(740,1)=48.0561188355
Q6(741,0)=7400
Q6(741,1)=48.0561188355
Q6(742,0)=7410
Q6(742,1)=48.0561188355
Q6(743,0)=7420
Q6(743,1)=48.0561188355
Q6(744,0)=7430
Q6(744,1)=48.0561188355
Q6(745,0)=7440
Q6(745,1)=48.0561188355
Q6(746,0)=7450
Q6(746,1)=48.0561188355
Q6(747,0)=7460
Q6(747,1)=48.0561188355
Q6(748,0)=7470
Q6(748,1)=48.0561188355
Q6(749,0)=7480
Q6(749,1)=48.0561188355
Q6(750,0)=7490
Q6(750,1)=48.0561188355
Q6(751,0)=7500
Q6(751,1)=48.0561188355
Q6(752,0)=7510
Q6(752,1)=48.0561188355
Q6(753,0)=7520
Q6(753,1)=48.0561188355
Q6(754,0)=7530
Q6(754,1)=48.0561188355
Q6(755,0)=7540
Q6(755,1)=48.0561188355
Q6(756,0)=7550
Q6(756,1)=48.0561188355
Q6(757,0)=7560
Q6(757,1)=48.0561188355
Q6(758,0)=7570
Q6(758,1)=48.0561188355
Q6(759,0)=7580
Q6(759,1)=48.0561188355
Q6(760,0)=7590
Q6(760,1)=48.0561188355
Q6(761,0)=7600
Q6(761,1)=48.0561188355
Q6(762,0)=7610
Q6(762,1)=48.0561188355
Q6(763,0)=7620
Q6(763,1)=48.0561188355
Q6(764,0)=7630
Q6(764,1)=48.0561188355
Q6(765,0)=7640
Q6(765,1)=48.0561188355
Q6(766,0)=7650
Q6(766,1)=48.0561188355
Q6(767,0)=7660
Q6(767,1)=48.0561188355
Q6(768,0)=7670
Q6(768,1)=48.0561188355
Q6(769,0)=7680
Q6(769,1)=48.0561188355
Q6(770,0)=7690
Q6(770,1)=48.0561188355
Q6(771,0)=7700
Q6(771,1)=48.0561188355
Q6(772,0)=7710
Q6(772,1)=48.0561188355
Q6(773,0)=7720
Q6(773,1)=48.0561188355
Q6(774,0)=7730
Q6(774,1)=48.0561188355
Q6(775,0)=7740
Q6(775,1)=48.0561188355
Q6(776,0)=7750
Q6(776,1)=48.0561188355
Q6(777,0)=7760
Q6(777,1)=48.0561188355
Q6(778,0)=7770
Q6(778,1)=48.0561188355
Q6(779,0)=7780
Q6(779,1)=48.0561188355
Q6(780,0)=7790
Q6(780,1)=48.0561188355
Q6(781,0)=7800
Q6(781,1)=48.0561188355
Q6(782,0)=7810
Q6(782,1)=48.0561188355
Q6(783,0)=7820
Q6(783,1)=48.0561188355
Q6(784,0)=7830
Q6(784,1)=48.0561188355
Q6(785,0)=7840
Q6(785,1)=48.0561188355
Q6(786,0)=7850
Q6(786,1)=48.0561188355
Q6(787,0)=7860
Q6(787,1)=48.0561188355
Q6(788,0)=7870
Q6(788,1)=48.0561188355
Q6(789,0)=7880
Q6(789,1)=48.0561188355
Q6(790,0)=7890
Q6(790,1)=48.0561188355
Q6(791,0)=7900
Q6(791,1)=48.0561188355
Q6(792,0)=7910
Q6(792,1)=48.0561188355
Q6(793,0)=7920
Q6(793,1)=48.0561188355
Q6(794,0)=7930
Q6(794,1)=48.0561188355
Q6(795,0)=7940
Q6(795,1)=48.0561188355
Q6(796,0)=7950
Q6(796,1)=48.0561188355
Q6(797,0)=7960
Q6(797,1)=48.0561188355
Q6(798,0)=7970
Q6(798,1)=48.0561188355
Q6(799,0)=7980
Q6(799,1)=48.0561188355
Q6(800,0)=7990
Q6(800,1)=48.0561188355
Q6(801,0)=8000
Q6(801,1)=48.0561188355
Q6(802,0)=8010
Q6(802,1)=48.0561188355
Q6(803,0)=8020
Q6(803,1)=48.0561188355
Q6(804,0)=8030
Q6(804,1)=48.0561188355
Q6(805,0)=8040
Q6(805,1)=48.0561188355
Q6(806,0)=8050
Q6(806,1)=48.0561188355
Q6(807,0)=8060
Q6(807,1)=48.0561188355
Q6(808,0)=8070
Q6(808,1)=48.0561188355
Q6(809,0)=8080
Q6(809,1)=48.0561188355
Q6(810,0)=8090
Q6(810,1)=48.0561188355
Q6(811,0)=8100
Q6(811,1)=48.0561188355
Q6(812,0)=8110
Q6(812,1)=48.0561188355
Q6(813,0)=8120
Q6(813,1)=48.0561188355
Q6(814,0)=8130
Q6(814,1)=48.0561188355
Q6(815,0)=8140
Q6(815,1)=48.0561188355
Q6(816,0)=8150
Q6(816,1)=48.0561188355
Q6(817,0)=8160
Q6(817,1)=48.0561188355
Q6(818,0)=8170
Q6(818,1)=48.0561188355
Q6(819,0)=8180
Q6(819,1)=48.0561188355
Q6(820,0)=8190
Q6(820,1)=48.0561188355
Q6(821,0)=8200
Q6(821,1)=48.0561188355
Q6(822,0)=8210
Q6(822,1)=48.0561188355
Q6(823,0)=8220
Q6(823,1)=48.0561188355
Q6(824,0)=8230
Q6(824,1)=48.0561188355
Q6(825,0)=8240
Q6(825,1)=48.0561188355
Q6(826,0)=8250
Q6(826,1)=48.0561188355
Q6(827,0)=8260
Q6(827,1)=48.0561188355
Q6(828,0)=8270
Q6(828,1)=48.0561188355
Q6(829,0)=8280
Q6(829,1)=48.0561188355
Q6(830,0)=8290
Q6(830,1)=48.0561188355
Q6(831,0)=8300
Q6(831,1)=48.0561188355
Q6(832,0)=8310
Q6(832,1)=48.0561188355
Q6(833,0)=8320
Q6(833,1)=48.0561188355
Q6(834,0)=8330
Q6(834,1)=48.0561188355
Q6(835,0)=8340
Q6(835,1)=48.0561188355
Q6(836,0)=8350
Q6(836,1)=48.0561188355
Q6(837,0)=8360
Q6(837,1)=48.0561188355
Q6(838,0)=8370
Q6(838,1)=48.0561188355
Q6(839,0)=8380
Q6(839,1)=48.0561188355
Q6(840,0)=8390
Q6(840,1)=48.0561188355
Q6(841,0)=8400
Q6(841,1)=48.0561188355
Q6(842,0)=8410
Q6(842,1)=48.0561188355
Q6(843,0)=8420
Q6(843,1)=48.0561188355
Q6(844,0)=8430
Q6(844,1)=48.0561188355
Q6(845,0)=8440
Q6(845,1)=48.0561188355
Q6(846,0)=8450
Q6(846,1)=48.0561188355
Q6(847,0)=8460
Q6(847,1)=48.0561188355
Q6(848,0)=8470
Q6(848,1)=48.0561188355
Q6(849,0)=8480
Q6(849,1)=48.0561188355
Q6(850,0)=8490
Q6(850,1)=48.0561188355
Q6(851,0)=8500
Q6(851,1)=48.0561188355
Q6(852,0)=8510
Q6(852,1)=48.0561188355
Q6(853,0)=8520
Q6(853,1)=48.0561188355
Q6(854,0)=8530
Q6(854,1)=48.0561188355
Q6(855,0)=8540
Q6(855,1)=48.0561188355
Q6(856,0)=8550
Q6(856,1)=48.0561188355
Q6(857,0)=8560
Q6(857,1)=48.0561188355
Q6(858,0)=8570
Q6(858,1)=48.0561188355
Q6(859,0)=8580
Q6(859,1)=48.0561188355
Q6(860,0)=8590
Q6(860,1)=48.0561188355
Q6(861,0)=8600
Q6(861,1)=48.0561188355
Q6(862,0)=8610
Q6(862,1)=48.0561188355
Q6(863,0)=8620
Q6(863,1)=48.0561188355
Q6(864,0)=8630
Q6(864,1)=48.0561188355
Q6(865,0)=8640
Q6(865,1)=48.0561188355
Q6(866,0)=8650
Q6(866,1)=48.0561188355
Q6(867,0)=8660
Q6(867,1)=48.0561188355
Q6(868,0)=8670
Q6(868,1)=48.0561188355
Q6(869,0)=8680
Q6(869,1)=48.0561188355
Q6(870,0)=8690
Q6(870,1)=48.0561188355
Q6(871,0)=8700
Q6(871,1)=48.0561188355
Q6(872,0)=8710
Q6(872,1)=48.0561188355
Q6(873,0)=8720
Q6(873,1)=48.0561188355
Q6(874,0)=8730
Q6(874,1)=48.0561188355
Q6(875,0)=8740
Q6(875,1)=48.0561188355
Q6(876,0)=8750
Q6(876,1)=48.0561188355
Q6(877,0)=8760
Q6(877,1)=48.0561188355
Q6(878,0)=8770
Q6(878,1)=48.0561188355
Q6(879,0)=8780
Q6(879,1)=48.0561188355
Q6(880,0)=8790
Q6(880,1)=48.0561188355
Q6(881,0)=8800
Q6(881,1)=48.0561188355
Q6(882,0)=8810
Q6(882,1)=48.0561188355
Q6(883,0)=8820
Q6(883,1)=48.0561188355
Q6(884,0)=8830
Q6(884,1)=48.0561188355
Q6(885,0)=8840
Q6(885,1)=48.0561188355
Q6(886,0)=8850
Q6(886,1)=48.0561188355
Q6(887,0)=8860
Q6(887,1)=48.0561188355
Q6(888,0)=8870
Q6(888,1)=48.0561188355
Q6(889,0)=8880
Q6(889,1)=48.0561188355
Q6(890,0)=8890
Q6(890,1)=48.0561188355
Q6(891,0)=8900
Q6(891,1)=48.0561188355
Q6(892,0)=8910
Q6(892,1)=48.0561188355
Q6(893,0)=8920
Q6(893,1)=48.0561188355
Q6(894,0)=8930
Q6(894,1)=48.0561188355
Q6(895,0)=8940
Q6(895,1)=48.0561188355
Q6(896,0)=8950
Q6(896,1)=48.0561188355
Q6(897,0)=8960
Q6(897,1)=48.0561188355
Q6(898,0)=8970
Q6(898,1)=48.0561188355
Q6(899,0)=8980
Q6(899,1)=48.0561188355
Q6(900,0)=8990
Q6(900,1)=48.0561188355
Q6(901,0)=9000
Q6(901,1)=48.0561188355
Q6(902,0)=9010
Q6(902,1)=48.0561188355
Q6(903,0)=9020
Q6(903,1)=48.0561188355
Q6(904,0)=9030
Q6(904,1)=48.0561188355
Q6(905,0)=9040
Q6(905,1)=48.0561188355
Q6(906,0)=9050
Q6(906,1)=48.0561188355
Q6(907,0)=9060
Q6(907,1)=48.0561188355
Q6(908,0)=9070
Q6(908,1)=48.0561188355
Q6(909,0)=9080
Q6(909,1)=48.0561188355
Q6(910,0)=9090
Q6(910,1)=48.0561188355
Q6(911,0)=9100
Q6(911,1)=48.0561188355
Q6(912,0)=9110
Q6(912,1)=48.0561188355
Q6(913,0)=9120
Q6(913,1)=48.0561188355
Q6(914,0)=9130
Q6(914,1)=48.0561188355
Q6(915,0)=9140
Q6(915,1)=48.0561188355
Q6(916,0)=9150
Q6(916,1)=48.0561188355
Q6(917,0)=9160
Q6(917,1)=48.0561188355
Q6(918,0)=9170
Q6(918,1)=48.0561188355
Q6(919,0)=9180
Q6(919,1)=48.0561188355
Q6(920,0)=9190
Q6(920,1)=48.0561188355
Q6(921,0)=9200
Q6(921,1)=48.0561188355
Q6(922,0)=9210
Q6(922,1)=48.0561188355
Q6(923,0)=9220
Q6(923,1)=48.0561188355
Q6(924,0)=9230
Q6(924,1)=48.0561188355
Q6(925,0)=9240
Q6(925,1)=48.0561188355
Q6(926,0)=9250
Q6(926,1)=48.0561188355
Q6(927,0)=9260
Q6(927,1)=48.0561188355
Q6(928,0)=9270
Q6(928,1)=48.0561188355
Q6(929,0)=9280
Q6(929,1)=48.0561188355
Q6(930,0)=9290
Q6(930,1)=48.0561188355
Q6(931,0)=9300
Q6(931,1)=48.0561188355
Q6(932,0)=9310
Q6(932,1)=48.0561188355
Q6(933,0)=9320
Q6(933,1)=48.0561188355
Q6(934,0)=9330
Q6(934,1)=48.0561188355
Q6(935,0)=9340
Q6(935,1)=48.0561188355
Q6(936,0)=9350
Q6(936,1)=48.0561188355
Q6(937,0)=9360
Q6(937,1)=48.0561188355
Q6(938,0)=9370
Q6(938,1)=48.0561188355
Q6(939,0)=9380
Q6(939,1)=48.0561188355
Q6(940,0)=9390
Q6(940,1)=48.0561188355
Q6(941,0)=9400
Q6(941,1)=48.0561188355
Q6(942,0)=9410
Q6(942,1)=48.0561188355
Q6(943,0)=9420
Q6(943,1)=48.0561188355
Q6(944,0)=9430
Q6(944,1)=48.0561188355
Q6(945,0)=9440
Q6(945,1)=48.0561188355
Q6(946,0)=9450
Q6(946,1)=48.0561188355
Q6(947,0)=9460
Q6(947,1)=48.0561188355
Q6(948,0)=9470
Q6(948,1)=48.0561188355
Q6(949,0)=9480
Q6(949,1)=48.0561188355
Q6(950,0)=9490
Q6(950,1)=48.0561188355
Q6(951,0)=9500
Q6(951,1)=48.0561188355
Q6(952,0)=9510
Q6(952,1)=48.0561188355
Q6(953,0)=9520
Q6(953,1)=48.0561188355
Q6(954,0)=9530
Q6(954,1)=48.0561188355
Q6(955,0)=9540
Q6(955,1)=48.0561188355
Q6(956,0)=9550
Q6(956,1)=48.0561188355
Q6(957,0)=9560
Q6(957,1)=48.0561188355
Q6(958,0)=9570
Q6(958,1)=48.0561188355
Q6(959,0)=9580
Q6(959,1)=48.0561188355
Q6(960,0)=9590
Q6(960,1)=48.0561188355
Q6(961,0)=9600
Q6(961,1)=48.0561188355
Q6(962,0)=9610
Q6(962,1)=48.0561188355
Q6(963,0)=9620
Q6(963,1)=48.0561188355
Q6(964,0)=9630
Q6(964,1)=48.0561188355
Q6(965,0)=9640
Q6(965,1)=48.0561188355
Q6(966,0)=9650
Q6(966,1)=48.0561188355
Q6(967,0)=9660
Q6(967,1)=48.0561188355
Q6(968,0)=9670
Q6(968,1)=48.0561188355
Q6(969,0)=9680
Q6(969,1)=48.0561188355
Q6(970,0)=9690
Q6(970,1)=48.0561188355
Q6(971,0)=9700
Q6(971,1)=48.0561188355
Q6(972,0)=9710
Q6(972,1)=48.0561188355
Q6(973,0)=9720
Q6(973,1)=48.0561188355
Q6(974,0)=9730
Q6(974,1)=48.0561188355
Q6(975,0)=9740
Q6(975,1)=48.0561188355
Q6(976,0)=9750
Q6(976,1)=48.0561188355
Q6(977,0)=9760
Q6(977,1)=48.0561188355
Q6(978,0)=9770
Q6(978,1)=48.0561188355
Q6(979,0)=9780
Q6(979,1)=48.8412858804
Q6(980,0)=9790
Q6(980,1)=49.8425446189
Q6(981,0)=9800
Q6(981,1)=50.8435768554
Q6(982,0)=9810
Q6(982,1)=51.8442556688
Q6(983,0)=9820
Q6(983,1)=52.8444541824
Q6(984,0)=9830
Q6(984,1)=53.8440455804
Q6(985,0)=9840
Q6(985,1)=54.8429031243
Q6(986,0)=9850
Q6(986,1)=55.8409001684
Q6(987,0)=9860
Q6(987,1)=56.837910176
Q6(988,0)=9870
Q6(988,1)=57.8338067358
Q6(989,0)=9880
Q6(989,1)=58.8284635776
Q6(990,0)=9890
Q6(990,1)=59.8217545884
Q6(991,0)=9900
Q6(991,1)=60.8135538281
Q6(992,0)=9910
Q6(992,1)=61.8037355462
Q6(993,0)=9920
Q6(993,1)=62.7921741969
Q6(994,0)=9930
Q6(994,1)=63.7787444556
Q6(995,0)=9940
Q6(995,1)=64.7633212346
Q6(996,0)=9950
Q6(996,1)=65.7457796989
Q6(997,0)=9960
Q6(997,1)=66.7259952821
Q6(998,0)=9970
Q6(998,1)=67.7038437021
Q6(999,0)=9980
Q6(999,1)=68.679200977
Q6(1000,0)=9990
Q6(1000,1)=69.6519434408
Q6(1001,0)=10000
Q6(1001,1)=70.621947759
Q6(1002,0)=10010
Q6(1002,1)=71.5890909443
Q6(1003,0)=10020
Q6(1003,1)=72.553250372
Q6(1004,0)=10030
Q6(1004,1)=73.5143037958
Q6(1005,0)=10040
Q6(1005,1)=74.4721293634
Q6(1006,0)=10050
Q6(1006,1)=75.4266056316
Q6(1007,0)=10060
Q6(1007,1)=76.3776115818
Q6(1008,0)=10070
Q6(1008,1)=77.3250266354
Q6(1009,0)=10080
Q6(1009,1)=78.2687306693
Q6(1010,0)=10090
Q6(1010,1)=79.2086040307
Q6(1011,0)=10100
Q6(1011,1)=80.1445275526
Q6(1012,0)=10110
Q6(1012,1)=81.0763825688
Q6(1013,0)=10120
Q6(1013,1)=82.0040509289
Q6(1014,0)=10130
Q6(1014,1)=82.9274150134
Q6(1015,0)=10140
Q6(1015,1)=83.8463577484
Q6(1016,0)=10150
Q6(1016,1)=84.7607626208
Q6(1017,0)=10160
Q6(1017,1)=85.6705136926
Q6(1018,0)=10170
Q6(1018,1)=86.5754956161
Q6(1019,0)=10180
Q6(1019,1)=87.4755936482
Q6(1020,0)=10190
Q6(1020,1)=88.370693665
Q6(1021,0)=10200
Q6(1021,1)=89.2606821762
Q6(1022,0)=10210
Q6(1022,1)=90.1454463398
Q6(1023,0)=10220
Q6(1023,1)=91.0248739761
Q6(1024,0)=10230
Q6(1024,1)=91.898853582
Q6(1025,0)=10240
Q6(1025,1)=92.7672743452
Q6(1026,0)=10250
Q6(1026,1)=93.6300261582
Q6(1027,0)=10260
Q6(1027,1)=94.4869996322
Q6(1028,0)=10270
Q6(1028,1)=95.3380861111
Q6(1029,0)=10280
Q6(1029,1)=96.1831776852
Q6(1030,0)=10290
Q6(1030,1)=97.022167205
Q6(1031,0)=10300
Q6(1031,1)=97.8549482946
Q6(1032,0)=10310
Q6(1032,1)=98.6814153651
Q6(1033,0)=10320
Q6(1033,1)=99.5014636284
Q6(1034,0)=10330
Q6(1034,1)=100.31498911
Q6(1035,0)=10340
Q6(1035,1)=101.121888663
Q6(1036,0)=10350
Q6(1036,1)=101.92205998
Q6(1037,0)=10360
Q6(1037,1)=102.715401607
Q6(1038,0)=10370
Q6(1038,1)=103.501812955
Q6(1039,0)=10380
Q6(1039,1)=104.281194316
Q6(1040,0)=10390
Q6(1040,1)=105.05344687
Q6(1041,0)=10400
Q6(1041,1)=105.818472705
Q6(1042,0)=10410
Q6(1042,1)=106.576174821
Q6(1043,0)=10420
Q6(1043,1)=107.326457149
Q6(1044,0)=10430
Q6(1044,1)=108.06922456
Q6(1045,0)=10440
Q6(1045,1)=108.80438288
Q6(1046,0)=10450
Q6(1046,1)=109.531838896
Q6(1047,0)=10460
Q6(1047,1)=110.251500374
Q6(1048,0)=10470
Q6(1048,1)=110.963276068
Q6(1049,0)=10480
Q6(1049,1)=111.667075731
Q6(1050,0)=10490
Q6(1050,1)=112.362810129
Q6(1051,0)=10500
Q6(1051,1)=113.050391048
Q6(1052,0)=10510
Q6(1052,1)=113.729731311
Q6(1053,0)=10520
Q6(1053,1)=114.400744782
Q6(1054,0)=10530
Q6(1054,1)=115.063346385
Q6(1055,0)=10540
Q6(1055,1)=115.717452107
Q6(1056,0)=10550
Q6(1056,1)=116.362979014
Q6(1057,0)=10560
Q6(1057,1)=116.999845259
Q6(1058,0)=10570
Q6(1058,1)=117.627970095
Q6(1059,0)=10580
Q6(1059,1)=118.247273879
Q6(1060,0)=10590
Q6(1060,1)=118.857678091
Q6(1061,0)=10600
Q6(1061,1)=119.459105338
Q6(1062,0)=10610
Q6(1062,1)=120.051479363
Q6(1063,0)=10620
Q6(1063,1)=120.63472506
Q6(1064,0)=10630
Q6(1064,1)=121.208768478
Q6(1065,0)=10640
Q6(1065,1)=121.773536835
Q6(1066,0)=10650
Q6(1066,1)=122.328958522
Q6(1067,0)=10660
Q6(1067,1)=122.874963118
Q6(1068,0)=10670
Q6(1068,1)=123.411481395
Q6(1069,0)=10680
Q6(1069,1)=123.938445327
Q6(1070,0)=10690
Q6(1070,1)=124.4557881
Q6(1071,0)=10700
Q6(1071,1)=124.96344412
Q6(1072,0)=10710
Q6(1072,1)=125.461349021
Q6(1073,0)=10720
Q6(1073,1)=125.949439673
Q6(1074,0)=10730
Q6(1074,1)=126.427654191
Q6(1075,0)=10740
Q6(1075,1)=126.895931942
Q6(1076,0)=10750
Q6(1076,1)=127.354213554
Q6(1077,0)=10760
Q6(1077,1)=127.802440919
Q6(1078,0)=10770
Q6(1078,1)=128.240557207
Q6(1079,0)=10780
Q6(1079,1)=128.66850687
Q6(1080,0)=10790
Q6(1080,1)=129.086235647
Q6(1081,0)=10800
Q6(1081,1)=129.493690574
Q6(1082,0)=10810
Q6(1082,1)=129.890819989
Q6(1083,0)=10820
Q6(1083,1)=130.277573541
Q6(1084,0)=10830
Q6(1084,1)=130.653902193
Q6(1085,0)=10840
Q6(1085,1)=131.01975823
Q6(1086,0)=10850
Q6(1086,1)=131.375095264
Q6(1087,0)=10860
Q6(1087,1)=131.719868243
Q6(1088,0)=10870
Q6(1088,1)=132.054033453
Q6(1089,0)=10880
Q6(1089,1)=132.377548524
Q6(1090,0)=10890
Q6(1090,1)=132.690372438
Q6(1091,0)=10900
Q6(1091,1)=132.992465532
Q6(1092,0)=10910
Q6(1092,1)=133.283789502
Q6(1093,0)=10920
Q6(1093,1)=133.564307414
Q6(1094,0)=10930
Q6(1094,1)=133.833983698
Q6(1095,0)=10940
Q6(1095,1)=134.092784163
Q6(1096,0)=10950
Q6(1096,1)=134.340675995
Q6(1097,0)=10960
Q6(1097,1)=134.577627764
Q6(1098,0)=10970
Q6(1098,1)=134.803609427
Q6(1099,0)=10980
Q6(1099,1)=135.018592332
Q6(1100,0)=10990
Q6(1100,1)=135.22254922
Q6(1101,0)=11000
Q6(1101,1)=135.415454231
Q6(1102,0)=11010
Q6(1102,1)=135.597282908
Q6(1103,0)=11020
Q6(1103,1)=135.768012197
Q6(1104,0)=11030
Q6(1104,1)=135.927620449
Q6(1105,0)=11040
Q6(1105,1)=136.076087429
Q6(1106,0)=11050
Q6(1106,1)=136.213394312
Q6(1107,0)=11060
Q6(1107,1)=136.339523689
Q6(1108,0)=11070
Q6(1108,1)=136.454459568
Q6(1109,0)=11080
Q6(1109,1)=136.558187377
Q6(1110,0)=11090
Q6(1110,1)=136.650693963
Q6(1111,0)=11100
Q6(1111,1)=136.731967598
Q6(1112,0)=11110
Q6(1112,1)=136.801997976
Q6(1113,0)=11120
Q6(1113,1)=136.860776219
Q6(1114,0)=11130
Q6(1114,1)=136.908294875
Q6(1115,0)=11140
Q6(1115,1)=136.944547917
Q6(1116,0)=11150
Q6(1116,1)=136.969530751
Q6(1117,0)=11160
Q6(1117,1)=136.983240207
SFE,1,1,RDSF,1,0.72
SFE,1,1,RDSF,2,2
SFE,1,1,HFLUX,1,%Q5%
SFE,1,2,RDSF,1,0.72
SFE,1,2,RDSF,2,2
SFE,1,2,HFLUX,1,%Q3%
SFE,1,5,RDSF,1,0.72
SFE,1,5,RDSF,2,2
SFE,1,5,HFLUX,1,%Q1%
SFE,2,1,RDSF,1,0.72
SFE,2,1,RDSF,2,2
SFE,2,1,HFLUX,1,%Q5%
SFE,2,2,RDSF,1,0.72
SFE,2,2,RDSF,2,2
SFE,2,2,HFLUX,1,%Q3%
SFE,3,1,RDSF,1,0.72
SFE,3,1,RDSF,2,2
SFE,3,1,HFLUX,1,%Q5%
SFE,3,2,RDSF,1,0.72
SFE,3,2,RDSF,2,2
SFE,3,2,HFLUX,1,%Q3%
SFE,4,1,RDSF,1,0.72
SFE,4,1,RDSF,2,2
SFE,4,1,HFLUX,1,%Q5%
SFE,4,2,RDSF,1,0.72
SFE,4,2,RDSF,2,2
SFE,4,2,HFLUX,1,%Q3%
SFE,5,1,RDSF,1,0.72
SFE,5,1,RDSF,2,2
SFE,5,1,HFLUX,1,%Q5%
SFE,5,2,RDSF,1,0.72
SFE,5,2,RDSF,2,2
SFE,5,2,HFLUX,1,%Q3%
SFE,6,1,RDSF,1,0.72
SFE,6,1,RDSF,2,2
SFE,6,1,HFLUX,1,%Q5%
SFE,6,2,RDSF,1,0.72
SFE,6,2,RDSF,2,2
SFE,6,2,HFLUX,1,%Q3%
SFE,7,1,RDSF,1,0.72
SFE,7,1,RDSF,2,2
SFE,7,1,HFLUX,1,%Q5%
SFE,7,2,RDSF,1,0.72
SFE,7,2,RDSF,2,2
SFE,7,2,HFLUX,1,%Q3%
SFE,8,1,RDSF,1,0.72
SFE,8,1,RDSF,2,2
SFE,8,1,HFLUX,1,%Q5%
SFE,8,2,RDSF,1,0.72
SFE,8,2,RDSF,2,2
SFE,8,2,HFLUX,1,%Q3%
SFE,9,1,RDSF,1,0.72
SFE,9,1,RDSF,2,2
SFE,9,1,HFLUX,1,%Q5%
SFE,9,2,RDSF,1,0.72
SFE,9,2,RDSF,2,2
SFE,9,2,HFLUX,1,%Q3%
SFE,10,1,RDSF,1,0.72
SFE,10,1,RDSF,2,2
SFE,10,1,HFLUX,1,%Q5%
SFE,10,2,RDSF,1,0.72
SFE,10,2,RDSF,2,2
SFE,10,2,HFLUX,1,%Q3%
SFE,11,1,RDSF,1,0.72
SFE,11,1,RDSF,2,2
SFE,11,1,HFLUX,1,%Q5%
SFE,11,2,RDSF,1,0.72
SFE,11,2,RDSF,2,2
SFE,11,2,HFLUX,1,%Q3%
SFE,12,1,RDSF,1,0.72
SFE,12,1,RDSF,2,2
SFE,12,1,HFLUX,1,%Q5%
SFE,12,2,RDSF,1,0.72
SFE,12,2,RDSF,2,2
SFE,12,2,HFLUX,1,%Q3%
SFE,13,1,RDSF,1,0.72
SFE,13,1,RDSF,2,2
SFE,13,1,HFLUX,1,%Q5%
SFE,13,2,RDSF,1,0.72
SFE,13,2,RDSF,2,2
SFE,13,2,HFLUX,1,%Q3%
SFE,14,1,RDSF,1,0.72
SFE,14,1,RDSF,2,2
SFE,14,1,HFLUX,1,%Q5%
SFE,14,2,RDSF,1,0.72
SFE,14,2,RDSF,2,2
SFE,14,2,HFLUX,1,%Q3%
SFE,15,1,RDSF,1,0.72
SFE,15,1,RDSF,2,2
SFE,15,1,HFLUX,1,%Q5%
SFE,15,2,RDSF,1,0.72
SFE,15,2,RDSF,2,2
SFE,15,2,HFLUX,1,%Q3%
SFE,16,1,RDSF,1,0.72
SFE,16,1,RDSF,2,2
SFE,16,1,HFLUX,1,%Q5%
SFE,16,2,RDSF,1,0.72
SFE,16,2,RDSF,2,2
SFE,16,2,HFLUX,1,%Q3%
SFE,16,3,RDSF,1,0.72
SFE,16,3,RDSF,2,2
SFE,16,3,HFLUX,1,%Q2%
SFE,17,1,RDSF,1,0.72
SFE,17,1,RDSF,2,2
SFE,17,1,HFLUX,1,%Q5%
SFE,17,5,RDSF,1,0.72
SFE,17,5,RDSF,2,2
SFE,17,5,HFLUX,1,%Q1%
SFE,18,1,RDSF,1,0.72
SFE,18,1,RDSF,2,2
SFE,18,1,HFLUX,1,%Q5%
SFE,19,1,RDSF,1,0.72
SFE,19,1,RDSF,2,2
SFE,19,1,HFLUX,1,%Q5%
SFE,20,1,RDSF,1,0.72
SFE,20,1,RDSF,2,2
SFE,20,1,HFLUX,1,%Q5%
SFE,21,1,RDSF,1,0.72
SFE,21,1,RDSF,2,2
SFE,21,1,HFLUX,1,%Q5%
SFE,22,1,RDSF,1,0.72
SFE,22,1,RDSF,2,2
SFE,22,1,HFLUX,1,%Q5%
SFE,23,1,RDSF,1,0.72
SFE,23,1,RDSF,2,2
SFE,23,1,HFLUX,1,%Q5%
SFE,24,1,RDSF,1,0.72
SFE,24,1,RDSF,2,2
SFE,24,1,HFLUX,1,%Q5%
SFE,25,1,RDSF,1,0.72
SFE,25,1,RDSF,2,2
SFE,25,1,HFLUX,1,%Q5%
SFE,26,1,RDSF,1,0.72
SFE,26,1,RDSF,2,2
SFE,26,1,HFLUX,1,%Q5%
SFE,27,1,RDSF,1,0.72
SFE,27,1,RDSF,2,2
SFE,27,1,HFLUX,1,%Q5%
SFE,28,1,RDSF,1,0.72
SFE,28,1,RDSF,2,2
SFE,28,1,HFLUX,1,%Q5%
SFE,29,1,RDSF,1,0.72
SFE,29,1,RDSF,2,2
SFE,29,1,HFLUX,1,%Q5%
SFE,30,1,RDSF,1,0.72
SFE,30,1,RDSF,2,2
SFE,30,1,HFLUX,1,%Q5%
SFE,31,1,RDSF,1,0.72
SFE,31,1,RDSF,2,2
SFE,31,1,HFLUX,1,%Q5%
SFE,32,1,RDSF,1,0.72
SFE,32,1,RDSF,2,2
SFE,32,1,HFLUX,1,%Q5%
SFE,32,3,RDSF,1,0.72
SFE,32,3,RDSF,2,2
SFE,32,3,HFLUX,1,%Q2%
SFE,33,1,RDSF,1,0.72
SFE,33,1,RDSF,2,2
SFE,33,1,HFLUX,1,%Q5%
SFE,33,5,RDSF,1,0.72
SFE,33,5,RDSF,2,2
SFE,33,5,HFLUX,1,%Q1%
SFE,34,1,RDSF,1,0.72
SFE,34,1,RDSF,2,2
SFE,34,1,HFLUX,1,%Q5%
SFE,35,1,RDSF,1,0.72
SFE,35,1,RDSF,2,2
SFE,35,1,HFLUX,1,%Q5%
SFE,36,1,RDSF,1,0.72
SFE,36,1,RDSF,2,2
SFE,36,1,HFLUX,1,%Q5%
SFE,37,1,RDSF,1,0.72
SFE,37,1,RDSF,2,2
SFE,37,1,HFLUX,1,%Q5%
SFE,38,1,RDSF,1,0.72
SFE,38,1,RDSF,2,2
SFE,38,1,HFLUX,1,%Q5%
SFE,39,1,RDSF,1,0.72
SFE,39,1,RDSF,2,2
SFE,39,1,HFLUX,1,%Q5%
SFE,40,1,RDSF,1,0.72
SFE,40,1,RDSF,2,2
SFE,40,1,HFLUX,1,%Q5%
SFE,41,1,RDSF,1,0.72
SFE,41,1,RDSF,2,2
SFE,41,1,HFLUX,1,%Q5%
SFE,42,1,RDSF,1,0.72
SFE,42,1,RDSF,2,2
SFE,42,1,HFLUX,1,%Q5%
SFE,43,1,RDSF,1,0.72
SFE,43,1,RDSF,2,2
SFE,43,1,HFLUX,1,%Q5%
SFE,44,1,RDSF,1,0.72
SFE,44,1,RDSF,2,2
SFE,44,1,HFLUX,1,%Q5%
SFE,45,1,RDSF,1,0.72
SFE,45,1,RDSF,2,2
SFE,45,1,HFLUX,1,%Q5%
SFE,46,1,RDSF,1,0.72
SFE,46,1,RDSF,2,2
SFE,46,1,HFLUX,1,%Q5%
SFE,47,1,RDSF,1,0.72
SFE,47,1,RDSF,2,2
SFE,47,1,HFLUX,1,%Q5%
SFE,48,1,RDSF,1,0.72
SFE,48,1,RDSF,2,2
SFE,48,1,HFLUX,1,%Q5%
SFE,48,3,RDSF,1,0.72
SFE,48,3,RDSF,2,2
SFE,48,3,HFLUX,1,%Q2%
SFE,49,1,RDSF,1,0.72
SFE,49,1,RDSF,2,2
SFE,49,1,HFLUX,1,%Q5%
SFE,49,5,RDSF,1,0.72
SFE,49,5,RDSF,2,2
SFE,49,5,HFLUX,1,%Q1%
SFE,50,1,RDSF,1,0.72
SFE,50,1,RDSF,2,2
SFE,50,1,HFLUX,1,%Q5%
SFE,51,1,RDSF,1,0.72
SFE,51,1,RDSF,2,2
SFE,51,1,HFLUX,1,%Q5%
SFE,52,1,RDSF,1,0.72
SFE,52,1,RDSF,2,2
SFE,52,1,HFLUX,1,%Q5%
SFE,52,6,RDSF,1,0.5
SFE,52,6,RDSF,2,1
SFE,53,1,RDSF,1,0.72
SFE,53,1,RDSF,2,2
SFE,53,1,HFLUX,1,%Q5%
SFE,53,6,RDSF,1,0.5
SFE,53,6,RDSF,2,1
SFE,54,1,RDSF,1,0.72
SFE,54,1,RDSF,2,2
SFE,54,1,HFLUX,1,%Q5%
SFE,54,6,RDSF,1,0.5
SFE,54,6,RDSF,2,1
SFE,55,1,RDSF,1,0.72
SFE,55,1,RDSF,2,2
SFE,55,1,HFLUX,1,%Q5%
SFE,55,6,RDSF,1,0.5
SFE,55,6,RDSF,2,1
SFE,56,1,RDSF,1,0.72
SFE,56,1,RDSF,2,2
SFE,56,1,HFLUX,1,%Q5%
SFE,56,6,RDSF,1,0.5
SFE,56,6,RDSF,2,1
SFE,57,1,RDSF,1,0.72
SFE,57,1,RDSF,2,2
SFE,57,1,HFLUX,1,%Q5%
SFE,57,6,RDSF,1,0.5
SFE,57,6,RDSF,2,1
SFE,58,1,RDSF,1,0.72
SFE,58,1,RDSF,2,2
SFE,58,1,HFLUX,1,%Q5%
SFE,58,6,RDSF,1,0.5
SFE,58,6,RDSF,2,1
SFE,59,1,RDSF,1,0.72
SFE,59,1,RDSF,2,2
SFE,59,1,HFLUX,1,%Q5%
SFE,59,6,RDSF,1,0.5
SFE,59,6,RDSF,2,1
SFE,60,1,RDSF,1,0.72
SFE,60,1,RDSF,2,2
SFE,60,1,HFLUX,1,%Q5%
SFE,60,6,RDSF,1,0.5
SFE,60,6,RDSF,2,1
SFE,61,1,RDSF,1,0.72
SFE,61,1,RDSF,2,2
SFE,61,1,HFLUX,1,%Q5%
SFE,61,6,RDSF,1,0.5
SFE,61,6,RDSF,2,1
SFE,62,1,RDSF,1,0.72
SFE,62,1,RDSF,2,2
SFE,62,1,HFLUX,1,%Q5%
SFE,63,1,RDSF,1,0.72
SFE,63,1,RDSF,2,2
SFE,63,1,HFLUX,1,%Q5%
SFE,64,1,RDSF,1,0.72
SFE,64,1,RDSF,2,2
SFE,64,1,HFLUX,1,%Q5%
SFE,64,3,RDSF,1,0.72
SFE,64,3,RDSF,2,2
SFE,64,3,HFLUX,1,%Q2%
SFE,65,1,RDSF,1,0.72
SFE,65,1,RDSF,2,2
SFE,65,1,HFLUX,1,%Q5%
SFE,65,5,RDSF,1,0.72
SFE,65,5,RDSF,2,2
SFE,65,5,HFLUX,1,%Q1%
SFE,66,1,RDSF,1,0.72
SFE,66,1,RDSF,2,2
SFE,66,1,HFLUX,1,%Q5%
SFE,67,1,RDSF,1,0.72
SFE,67,1,RDSF,2,2
SFE,67,1,HFLUX,1,%Q5%
SFE,68,1,RDSF,1,0.72
SFE,68,1,RDSF,2,2
SFE,68,1,HFLUX,1,%Q5%
SFE,68,6,RDSF,1,0.5
SFE,68,6,RDSF,2,1
SFE,69,1,RDSF,1,0.72
SFE,69,1,RDSF,2,2
SFE,69,1,HFLUX,1,%Q5%
SFE,70,1,RDSF,1,0.72
SFE,70,1,RDSF,2,2
SFE,70,1,HFLUX,1,%Q5%
SFE,70,6,RDSF,1,0.5
SFE,70,6,RDSF,2,1
SFE,71,1,RDSF,1,0.72
SFE,71,1,RDSF,2,2
SFE,71,1,HFLUX,1,%Q5%
SFE,71,6,RDSF,1,0.5
SFE,71,6,RDSF,2,1
SFE,72,1,RDSF,1,0.72
SFE,72,1,RDSF,2,2
SFE,72,1,HFLUX,1,%Q5%
SFE,72,6,RDSF,1,0.5
SFE,72,6,RDSF,2,1
SFE,73,1,RDSF,1,0.72
SFE,73,1,RDSF,2,2
SFE,73,1,HFLUX,1,%Q5%
SFE,73,6,RDSF,1,0.5
SFE,73,6,RDSF,2,1
SFE,74,1,RDSF,1,0.72
SFE,74,1,RDSF,2,2
SFE,74,1,HFLUX,1,%Q5%
SFE,74,6,RDSF,1,0.5
SFE,74,6,RDSF,2,1
SFE,75,1,RDSF,1,0.72
SFE,75,1,RDSF,2,2
SFE,75,1,HFLUX,1,%Q5%
SFE,75,6,RDSF,1,0.5
SFE,75,6,RDSF,2,1
SFE,76,1,RDSF,1,0.72
SFE,76,1,RDSF,2,2
SFE,76,1,HFLUX,1,%Q5%
SFE,77,1,RDSF,1,0.72
SFE,77,1,RDSF,2,2
SFE,77,1,HFLUX,1,%Q5%
SFE,77,6,RDSF,1,0.5
SFE,77,6,RDSF,2,1
SFE,78,1,RDSF,1,0.72
SFE,78,1,RDSF,2,2
SFE,78,1,HFLUX,1,%Q5%
SFE,79,1,RDSF,1,0.72
SFE,79,1,RDSF,2,2
SFE,79,1,HFLUX,1,%Q5%
SFE,80,1,RDSF,1,0.72
SFE,80,1,RDSF,2,2
SFE,80,1,HFLUX,1,%Q5%
SFE,80,3,RDSF,1,0.72
SFE,80,3,RDSF,2,2
SFE,80,3,HFLUX,1,%Q2%
SFE,81,1,RDSF,1,0.72
SFE,81,1,RDSF,2,2
SFE,81,1,HFLUX,1,%Q5%
SFE,81,5,RDSF,1,0.72
SFE,81,5,RDSF,2,2
SFE,81,5,HFLUX,1,%Q1%
SFE,82,1,RDSF,1,0.72
SFE,82,1,RDSF,2,2
SFE,82,1,HFLUX,1,%Q5%
SFE,83,1,RDSF,1,0.72
SFE,83,1,RDSF,2,2
SFE,83,1,HFLUX,1,%Q5%
SFE,84,1,RDSF,1,0.72
SFE,84,1,RDSF,2,2
SFE,84,1,HFLUX,1,%Q5%
SFE,84,6,RDSF,1,0.5
SFE,84,6,RDSF,2,1
SFE,85,1,RDSF,1,0.72
SFE,85,1,RDSF,2,2
SFE,85,1,HFLUX,1,%Q5%
SFE,85,6,RDSF,1,0.5
SFE,85,6,RDSF,2,1
SFE,86,1,RDSF,1,0.72
SFE,86,1,RDSF,2,2
SFE,86,1,HFLUX,1,%Q5%
SFE,86,6,RDSF,1,0.5
SFE,86,6,RDSF,2,1
SFE,87,1,RDSF,1,0.72
SFE,87,1,RDSF,2,2
SFE,87,1,HFLUX,1,%Q5%
SFE,87,6,RDSF,1,0.5
SFE,87,6,RDSF,2,1
SFE,88,1,RDSF,1,0.72
SFE,88,1,RDSF,2,2
SFE,88,1,HFLUX,1,%Q5%
SFE,88,6,RDSF,1,0.5
SFE,88,6,RDSF,2,1
SFE,89,1,RDSF,1,0.72
SFE,89,1,RDSF,2,2
SFE,89,1,HFLUX,1,%Q5%
SFE,89,6,RDSF,1,0.5
SFE,89,6,RDSF,2,1
SFE,90,1,RDSF,1,0.72
SFE,90,1,RDSF,2,2
SFE,90,1,HFLUX,1,%Q5%
SFE,90,6,RDSF,1,0.5
SFE,90,6,RDSF,2,1
SFE,91,1,RDSF,1,0.72
SFE,91,1,RDSF,2,2
SFE,91,1,HFLUX,1,%Q5%
SFE,91,6,RDSF,1,0.5
SFE,91,6,RDSF,2,1
SFE,92,1,RDSF,1,0.72
SFE,92,1,RDSF,2,2
SFE,92,1,HFLUX,1,%Q5%
SFE,92,6,RDSF,1,0.5
SFE,92,6,RDSF,2,1
SFE,93,1,RDSF,1,0.72
SFE,93,1,RDSF,2,2
SFE,93,1,HFLUX,1,%Q5%
SFE,93,6,RDSF,1,0.5
SFE,93,6,RDSF,2,1
SFE,94,1,RDSF,1,0.72
SFE,94,1,RDSF,2,2
SFE,94,1,HFLUX,1,%Q5%
SFE,95,1,RDSF,1,0.72
SFE,95,1,RDSF,2,2
SFE,95,1,HFLUX,1,%Q5%
SFE,96,1,RDSF,1,0.72
SFE,96,1,RDSF,2,2
SFE,96,1,HFLUX,1,%Q5%
SFE,96,3,RDSF,1,0.72
SFE,96,3,RDSF,2,2
SFE,96,3,HFLUX,1,%Q2%
SFE,97,1,RDSF,1,0.72
SFE,97,1,RDSF,2,2
SFE,97,1,HFLUX,1,%Q5%
SFE,97,5,RDSF,1,0.72
SFE,97,5,RDSF,2,2
SFE,97,5,HFLUX,1,%Q1%
SFE,98,1,RDSF,1,0.72
SFE,98,1,RDSF,2,2
SFE,98,1,HFLUX,1,%Q5%
SFE,99,1,RDSF,1,0.72
SFE,99,1,RDSF,2,2
SFE,99,1,HFLUX,1,%Q5%
SFE,100,1,RDSF,1,0.72
SFE,100,1,RDSF,2,2
SFE,100,1,HFLUX,1,%Q5%
SFE,100,6,RDSF,1,0.5
SFE,100,6,RDSF,2,1
SFE,101,1,RDSF,1,0.72
SFE,101,1,RDSF,2,2
SFE,101,1,HFLUX,1,%Q5%
SFE,101,6,RDSF,1,0.5
SFE,101,6,RDSF,2,1
SFE,102,1,RDSF,1,0.72
SFE,102,1,RDSF,2,2
SFE,102,1,HFLUX,1,%Q5%
SFE,102,6,RDSF,1,0.5
SFE,102,6,RDSF,2,1
SFE,103,1,RDSF,1,0.72
SFE,103,1,RDSF,2,2
SFE,103,1,HFLUX,1,%Q5%
SFE,103,6,RDSF,1,0.5
SFE,103,6,RDSF,2,1
SFE,104,1,RDSF,1,0.72
SFE,104,1,RDSF,2,2
SFE,104,1,HFLUX,1,%Q5%
SFE,104,6,RDSF,1,0.5
SFE,104,6,RDSF,2,1
SFE,105,1,RDSF,1,0.72
SFE,105,1,RDSF,2,2
SFE,105,1,HFLUX,1,%Q5%
SFE,105,6,RDSF,1,0.5
SFE,105,6,RDSF,2,1
SFE,106,1,RDSF,1,0.72
SFE,106,1,RDSF,2,2
SFE,106,1,HFLUX,1,%Q5%
SFE,106,6,RDSF,1,0.5
SFE,106,6,RDSF,2,1
SFE,107,1,RDSF,1,0.72
SFE,107,1,RDSF,2,2
SFE,107,1,HFLUX,1,%Q5%
SFE,107,6,RDSF,1,0.5
SFE,107,6,RDSF,2,1
SFE,108,1,RDSF,1,0.72
SFE,108,1,RDSF,2,2
SFE,108,1,HFLUX,1,%Q5%
SFE,108,6,RDSF,1,0.5
SFE,108,6,RDSF,2,1
SFE,109,1,RDSF,1,0.72
SFE,109,1,RDSF,2,2
SFE,109,1,HFLUX,1,%Q5%
SFE,109,6,RDSF,1,0.5
SFE,109,6,RDSF,2,1
SFE,110,1,RDSF,1,0.72
SFE,110,1,RDSF,2,2
SFE,110,1,HFLUX,1,%Q5%
SFE,111,1,RDSF,1,0.72
SFE,111,1,RDSF,2,2
SFE,111,1,HFLUX,1,%Q5%
SFE,112,1,RDSF,1,0.72
SFE,112,1,RDSF,2,2
SFE,112,1,HFLUX,1,%Q5%
SFE,112,3,RDSF,1,0.72
SFE,112,3,RDSF,2,2
SFE,112,3,HFLUX,1,%Q2%
SFE,113,1,RDSF,1,0.72
SFE,113,1,RDSF,2,2
SFE,113,1,HFLUX,1,%Q5%
SFE,113,5,RDSF,1,0.72
SFE,113,5,RDSF,2,2
SFE,113,5,HFLUX,1,%Q1%
SFE,114,1,RDSF,1,0.72
SFE,114,1,RDSF,2,2
SFE,114,1,HFLUX,1,%Q5%
SFE,115,1,RDSF,1,0.72
SFE,115,1,RDSF,2,2
SFE,115,1,HFLUX,1,%Q5%
SFE,116,1,RDSF,1,0.72
SFE,116,1,RDSF,2,2
SFE,116,1,HFLUX,1,%Q5%
SFE,116,6,RDSF,1,0.5
SFE,116,6,RDSF,2,1
SFE,117,1,RDSF,1,0.72
SFE,117,1,RDSF,2,2
SFE,117,1,HFLUX,1,%Q5%
SFE,117,6,RDSF,1,0.5
SFE,117,6,RDSF,2,1
SFE,118,1,RDSF,1,0.72
SFE,118,1,RDSF,2,2
SFE,118,1,HFLUX,1,%Q5%
SFE,118,6,RDSF,1,0.5
SFE,118,6,RDSF,2,1
SFE,119,1,RDSF,1,0.72
SFE,119,1,RDSF,2,2
SFE,119,1,HFLUX,1,%Q5%
SFE,119,6,RDSF,1,0.5
SFE,119,6,RDSF,2,1
SFE,120,1,RDSF,1,0.72
SFE,120,1,RDSF,2,2
SFE,120,1,HFLUX,1,%Q5%
SFE,120,6,RDSF,1,0.5
SFE,120,6,RDSF,2,1
SFE,121,1,RDSF,1,0.72
SFE,121,1,RDSF,2,2
SFE,121,1,HFLUX,1,%Q5%
SFE,121,6,RDSF,1,0.5
SFE,121,6,RDSF,2,1
SFE,122,1,RDSF,1,0.72
SFE,122,1,RDSF,2,2
SFE,122,1,HFLUX,1,%Q5%
SFE,122,6,RDSF,1,0.5
SFE,122,6,RDSF,2,1
SFE,123,1,RDSF,1,0.72
SFE,123,1,RDSF,2,2
SFE,123,1,HFLUX,1,%Q5%
SFE,123,6,RDSF,1,0.5
SFE,123,6,RDSF,2,1
SFE,124,1,RDSF,1,0.72
SFE,124,1,RDSF,2,2
SFE,124,1,HFLUX,1,%Q5%
SFE,124,6,RDSF,1,0.5
SFE,124,6,RDSF,2,1
SFE,125,1,RDSF,1,0.72
SFE,125,1,RDSF,2,2
SFE,125,1,HFLUX,1,%Q5%
SFE,125,6,RDSF,1,0.5
SFE,125,6,RDSF,2,1
SFE,126,1,RDSF,1,0.72
SFE,126,1,RDSF,2,2
SFE,126,1,HFLUX,1,%Q5%
SFE,127,1,RDSF,1,0.72
SFE,127,1,RDSF,2,2
SFE,127,1,HFLUX,1,%Q5%
SFE,128,1,RDSF,1,0.72
SFE,128,1,RDSF,2,2
SFE,128,1,HFLUX,1,%Q5%
SFE,128,3,RDSF,1,0.72
SFE,128,3,RDSF,2,2
SFE,128,3,HFLUX,1,%Q2%
SFE,129,1,RDSF,1,0.72
SFE,129,1,RDSF,2,2
SFE,129,1,HFLUX,1,%Q5%
SFE,129,5,RDSF,1,0.72
SFE,129,5,RDSF,2,2
SFE,129,5,HFLUX,1,%Q1%
SFE,130,1,RDSF,1,0.72
SFE,130,1,RDSF,2,2
SFE,130,1,HFLUX,1,%Q5%
SFE,131,1,RDSF,1,0.72
SFE,131,1,RDSF,2,2
SFE,131,1,HFLUX,1,%Q5%
SFE,132,1,RDSF,1,0.72
SFE,132,1,RDSF,2,2
SFE,132,1,HFLUX,1,%Q5%
SFE,132,6,RDSF,1,0.5
SFE,132,6,RDSF,2,1
SFE,133,1,RDSF,1,0.72
SFE,133,1,RDSF,2,2
SFE,133,1,HFLUX,1,%Q5%
SFE,133,6,RDSF,1,0.5
SFE,133,6,RDSF,2,1
SFE,134,1,RDSF,1,0.72
SFE,134,1,RDSF,2,2
SFE,134,1,HFLUX,1,%Q5%
SFE,134,6,RDSF,1,0.5
SFE,134,6,RDSF,2,1
SFE,135,1,RDSF,1,0.72
SFE,135,1,RDSF,2,2
SFE,135,1,HFLUX,1,%Q5%
SFE,135,6,RDSF,1,0.5
SFE,135,6,RDSF,2,1
SFE,136,1,RDSF,1,0.72
SFE,136,1,RDSF,2,2
SFE,136,1,HFLUX,1,%Q5%
SFE,136,6,RDSF,1,0.5
SFE,136,6,RDSF,2,1
SFE,137,1,RDSF,1,0.72
SFE,137,1,RDSF,2,2
SFE,137,1,HFLUX,1,%Q5%
SFE,137,6,RDSF,1,0.5
SFE,137,6,RDSF,2,1
SFE,138,1,RDSF,1,0.72
SFE,138,1,RDSF,2,2
SFE,138,1,HFLUX,1,%Q5%
SFE,138,6,RDSF,1,0.5
SFE,138,6,RDSF,2,1
SFE,139,1,RDSF,1,0.72
SFE,139,1,RDSF,2,2
SFE,139,1,HFLUX,1,%Q5%
SFE,139,6,RDSF,1,0.5
SFE,139,6,RDSF,2,1
SFE,140,1,RDSF,1,0.72
SFE,140,1,RDSF,2,2
SFE,140,1,HFLUX,1,%Q5%
SFE,140,6,RDSF,1,0.5
SFE,140,6,RDSF,2,1
SFE,141,1,RDSF,1,0.72
SFE,141,1,RDSF,2,2
SFE,141,1,HFLUX,1,%Q5%
SFE,141,6,RDSF,1,0.5
SFE,141,6,RDSF,2,1
SFE,142,1,RDSF,1,0.72
SFE,142,1,RDSF,2,2
SFE,142,1,HFLUX,1,%Q5%
SFE,143,1,RDSF,1,0.72
SFE,143,1,RDSF,2,2
SFE,143,1,HFLUX,1,%Q5%
SFE,144,1,RDSF,1,0.72
SFE,144,1,RDSF,2,2
SFE,144,1,HFLUX,1,%Q5%
SFE,144,3,RDSF,1,0.72
SFE,144,3,RDSF,2,2
SFE,144,3,HFLUX,1,%Q2%
SFE,145,1,RDSF,1,0.72
SFE,145,1,RDSF,2,2
SFE,145,1,HFLUX,1,%Q5%
SFE,145,5,RDSF,1,0.72
SFE,145,5,RDSF,2,2
SFE,145,5,HFLUX,1,%Q1%
SFE,146,1,RDSF,1,0.72
SFE,146,1,RDSF,2,2
SFE,146,1,HFLUX,1,%Q5%
SFE,147,1,RDSF,1,0.72
SFE,147,1,RDSF,2,2
SFE,147,1,HFLUX,1,%Q5%
SFE,148,1,RDSF,1,0.72
SFE,148,1,RDSF,2,2
SFE,148,1,HFLUX,1,%Q5%
SFE,148,6,RDSF,1,0.5
SFE,148,6,RDSF,2,1
SFE,149,1,RDSF,1,0.72
SFE,149,1,RDSF,2,2
SFE,149,1,HFLUX,1,%Q5%
SFE,149,6,RDSF,1,0.5
SFE,149,6,RDSF,2,1
SFE,150,1,RDSF,1,0.72
SFE,150,1,RDSF,2,2
SFE,150,1,HFLUX,1,%Q5%
SFE,150,6,RDSF,1,0.5
SFE,150,6,RDSF,2,1
SFE,151,1,RDSF,1,0.72
SFE,151,1,RDSF,2,2
SFE,151,1,HFLUX,1,%Q5%
SFE,151,6,RDSF,1,0.5
SFE,151,6,RDSF,2,1
SFE,152,1,RDSF,1,0.72
SFE,152,1,RDSF,2,2
SFE,152,1,HFLUX,1,%Q5%
SFE,152,6,RDSF,1,0.5
SFE,152,6,RDSF,2,1
SFE,153,1,RDSF,1,0.72
SFE,153,1,RDSF,2,2
SFE,153,1,HFLUX,1,%Q5%
SFE,153,6,RDSF,1,0.5
SFE,153,6,RDSF,2,1
SFE,154,1,RDSF,1,0.72
SFE,154,1,RDSF,2,2
SFE,154,1,HFLUX,1,%Q5%
SFE,154,6,RDSF,1,0.5
SFE,154,6,RDSF,2,1
SFE,155,1,RDSF,1,0.72
SFE,155,1,RDSF,2,2
SFE,155,1,HFLUX,1,%Q5%
SFE,155,6,RDSF,1,0.5
SFE,155,6,RDSF,2,1
SFE,156,1,RDSF,1,0.72
SFE,156,1,RDSF,2,2
SFE,156,1,HFLUX,1,%Q5%
SFE,156,6,RDSF,1,0.5
SFE,156,6,RDSF,2,1
SFE,157,1,RDSF,1,0.72
SFE,157,1,RDSF,2,2
SFE,157,1,HFLUX,1,%Q5%
SFE,157,6,RDSF,1,0.5
SFE,157,6,RDSF,2,1
SFE,158,1,RDSF,1,0.72
SFE,158,1,RDSF,2,2
SFE,158,1,HFLUX,1,%Q5%
SFE,159,1,RDSF,1,0.72
SFE,159,1,RDSF,2,2
SFE,159,1,HFLUX,1,%Q5%
SFE,160,1,RDSF,1,0.72
SFE,160,1,RDSF,2,2
SFE,160,1,HFLUX,1,%Q5%
SFE,160,3,RDSF,1,0.72
SFE,160,3,RDSF,2,2
SFE,160,3,HFLUX,1,%Q2%
SFE,161,1,RDSF,1,0.72
SFE,161,1,RDSF,2,2
SFE,161,1,HFLUX,1,%Q5%
SFE,161,5,RDSF,1,0.72
SFE,161,5,RDSF,2,2
SFE,161,5,HFLUX,1,%Q1%
SFE,162,1,RDSF,1,0.72
SFE,162,1,RDSF,2,2
SFE,162,1,HFLUX,1,%Q5%
SFE,163,1,RDSF,1,0.72
SFE,163,1,RDSF,2,2
SFE,163,1,HFLUX,1,%Q5%
SFE,164,1,RDSF,1,0.72
SFE,164,1,RDSF,2,2
SFE,164,1,HFLUX,1,%Q5%
SFE,164,6,RDSF,1,0.5
SFE,164,6,RDSF,2,1
SFE,165,1,RDSF,1,0.72
SFE,165,1,RDSF,2,2
SFE,165,1,HFLUX,1,%Q5%
SFE,165,6,RDSF,1,0.5
SFE,165,6,RDSF,2,1
SFE,166,1,RDSF,1,0.72
SFE,166,1,RDSF,2,2
SFE,166,1,HFLUX,1,%Q5%
SFE,166,6,RDSF,1,0.5
SFE,166,6,RDSF,2,1
SFE,167,1,RDSF,1,0.72
SFE,167,1,RDSF,2,2
SFE,167,1,HFLUX,1,%Q5%
SFE,167,6,RDSF,1,0.5
SFE,167,6,RDSF,2,1
SFE,168,1,RDSF,1,0.72
SFE,168,1,RDSF,2,2
SFE,168,1,HFLUX,1,%Q5%
SFE,168,6,RDSF,1,0.5
SFE,168,6,RDSF,2,1
SFE,169,1,RDSF,1,0.72
SFE,169,1,RDSF,2,2
SFE,169,1,HFLUX,1,%Q5%
SFE,169,6,RDSF,1,0.5
SFE,169,6,RDSF,2,1
SFE,170,1,RDSF,1,0.72
SFE,170,1,RDSF,2,2
SFE,170,1,HFLUX,1,%Q5%
SFE,170,6,RDSF,1,0.5
SFE,170,6,RDSF,2,1
SFE,171,1,RDSF,1,0.72
SFE,171,1,RDSF,2,2
SFE,171,1,HFLUX,1,%Q5%
SFE,171,6,RDSF,1,0.5
SFE,171,6,RDSF,2,1
SFE,172,1,RDSF,1,0.72
SFE,172,1,RDSF,2,2
SFE,172,1,HFLUX,1,%Q5%
SFE,172,6,RDSF,1,0.5
SFE,172,6,RDSF,2,1
SFE,173,1,RDSF,1,0.72
SFE,173,1,RDSF,2,2
SFE,173,1,HFLUX,1,%Q5%
SFE,173,6,RDSF,1,0.5
SFE,173,6,RDSF,2,1
SFE,174,1,RDSF,1,0.72
SFE,174,1,RDSF,2,2
SFE,174,1,HFLUX,1,%Q5%
SFE,175,1,RDSF,1,0.72
SFE,175,1,RDSF,2,2
SFE,175,1,HFLUX,1,%Q5%
SFE,176,1,RDSF,1,0.72
SFE,176,1,RDSF,2,2
SFE,176,1,HFLUX,1,%Q5%
SFE,176,3,RDSF,1,0.72
SFE,176,3,RDSF,2,2
SFE,176,3,HFLUX,1,%Q2%
SFE,177,1,RDSF,1,0.72
SFE,177,1,RDSF,2,2
SFE,177,1,HFLUX,1,%Q5%
SFE,177,5,RDSF,1,0.72
SFE,177,5,RDSF,2,2
SFE,177,5,HFLUX,1,%Q1%
SFE,178,1,RDSF,1,0.72
SFE,178,1,RDSF,2,2
SFE,178,1,HFLUX,1,%Q5%
SFE,179,1,RDSF,1,0.72
SFE,179,1,RDSF,2,2
SFE,179,1,HFLUX,1,%Q5%
SFE,180,1,RDSF,1,0.72
SFE,180,1,RDSF,2,2
SFE,180,1,HFLUX,1,%Q5%
SFE,180,6,RDSF,1,0.5
SFE,180,6,RDSF,2,1
SFE,181,1,RDSF,1,0.72
SFE,181,1,RDSF,2,2
SFE,181,1,HFLUX,1,%Q5%
SFE,182,1,RDSF,1,0.72
SFE,182,1,RDSF,2,2
SFE,182,1,HFLUX,1,%Q5%
SFE,182,6,RDSF,1,0.5
SFE,182,6,RDSF,2,1
SFE,183,1,RDSF,1,0.72
SFE,183,1,RDSF,2,2
SFE,183,1,HFLUX,1,%Q5%
SFE,183,6,RDSF,1,0.5
SFE,183,6,RDSF,2,1
SFE,184,1,RDSF,1,0.72
SFE,184,1,RDSF,2,2
SFE,184,1,HFLUX,1,%Q5%
SFE,184,6,RDSF,1,0.5
SFE,184,6,RDSF,2,1
SFE,185,1,RDSF,1,0.72
SFE,185,1,RDSF,2,2
SFE,185,1,HFLUX,1,%Q5%
SFE,185,6,RDSF,1,0.5
SFE,185,6,RDSF,2,1
SFE,186,1,RDSF,1,0.72
SFE,186,1,RDSF,2,2
SFE,186,1,HFLUX,1,%Q5%
SFE,186,6,RDSF,1,0.5
SFE,186,6,RDSF,2,1
SFE,187,1,RDSF,1,0.72
SFE,187,1,RDSF,2,2
SFE,187,1,HFLUX,1,%Q5%
SFE,187,6,RDSF,1,0.5
SFE,187,6,RDSF,2,1
SFE,188,1,RDSF,1,0.72
SFE,188,1,RDSF,2,2
SFE,188,1,HFLUX,1,%Q5%
SFE,189,1,RDSF,1,0.72
SFE,189,1,RDSF,2,2
SFE,189,1,HFLUX,1,%Q5%
SFE,189,6,RDSF,1,0.5
SFE,189,6,RDSF,2,1
SFE,190,1,RDSF,1,0.72
SFE,190,1,RDSF,2,2
SFE,190,1,HFLUX,1,%Q5%
SFE,191,1,RDSF,1,0.72
SFE,191,1,RDSF,2,2
SFE,191,1,HFLUX,1,%Q5%
SFE,192,1,RDSF,1,0.72
SFE,192,1,RDSF,2,2
SFE,192,1,HFLUX,1,%Q5%
SFE,192,3,RDSF,1,0.72
SFE,192,3,RDSF,2,2
SFE,192,3,HFLUX,1,%Q2%
SFE,193,1,RDSF,1,0.72
SFE,193,1,RDSF,2,2
SFE,193,1,HFLUX,1,%Q5%
SFE,193,5,RDSF,1,0.72
SFE,193,5,RDSF,2,2
SFE,193,5,HFLUX,1,%Q1%
SFE,194,1,RDSF,1,0.72
SFE,194,1,RDSF,2,2
SFE,194,1,HFLUX,1,%Q5%
SFE,195,1,RDSF,1,0.72
SFE,195,1,RDSF,2,2
SFE,195,1,HFLUX,1,%Q5%
SFE,196,1,RDSF,1,0.72
SFE,196,1,RDSF,2,2
SFE,196,1,HFLUX,1,%Q5%
SFE,196,6,RDSF,1,0.5
SFE,196,6,RDSF,2,1
SFE,197,1,RDSF,1,0.72
SFE,197,1,RDSF,2,2
SFE,197,1,HFLUX,1,%Q5%
SFE,197,6,RDSF,1,0.5
SFE,197,6,RDSF,2,1
SFE,198,1,RDSF,1,0.72
SFE,198,1,RDSF,2,2
SFE,198,1,HFLUX,1,%Q5%
SFE,198,6,RDSF,1,0.5
SFE,198,6,RDSF,2,1
SFE,199,1,RDSF,1,0.72
SFE,199,1,RDSF,2,2
SFE,199,1,HFLUX,1,%Q5%
SFE,199,6,RDSF,1,0.5
SFE,199,6,RDSF,2,1
SFE,200,1,RDSF,1,0.72
SFE,200,1,RDSF,2,2
SFE,200,1,HFLUX,1,%Q5%
SFE,200,6,RDSF,1,0.5
SFE,200,6,RDSF,2,1
SFE,201,1,RDSF,1,0.72
SFE,201,1,RDSF,2,2
SFE,201,1,HFLUX,1,%Q5%
SFE,201,6,RDSF,1,0.5
SFE,201,6,RDSF,2,1
SFE,202,1,RDSF,1,0.72
SFE,202,1,RDSF,2,2
SFE,202,1,HFLUX,1,%Q5%
SFE,202,6,RDSF,1,0.5
SFE,202,6,RDSF,2,1
SFE,203,1,RDSF,1,0.72
SFE,203,1,RDSF,2,2
SFE,203,1,HFLUX,1,%Q5%
SFE,203,6,RDSF,1,0.5
SFE,203,6,RDSF,2,1
SFE,204,1,RDSF,1,0.72
SFE,204,1,RDSF,2,2
SFE,204,1,HFLUX,1,%Q5%
SFE,204,6,RDSF,1,0.5
SFE,204,6,RDSF,2,1
SFE,205,1,RDSF,1,0.72
SFE,205,1,RDSF,2,2
SFE,205,1,HFLUX,1,%Q5%
SFE,205,6,RDSF,1,0.5
SFE,205,6,RDSF,2,1
SFE,206,1,RDSF,1,0.72
SFE,206,1,RDSF,2,2
SFE,206,1,HFLUX,1,%Q5%
SFE,207,1,RDSF,1,0.72
SFE,207,1,RDSF,2,2
SFE,207,1,HFLUX,1,%Q5%
SFE,208,1,RDSF,1,0.72
SFE,208,1,RDSF,2,2
SFE,208,1,HFLUX,1,%Q5%
SFE,208,3,RDSF,1,0.72
SFE,208,3,RDSF,2,2
SFE,208,3,HFLUX,1,%Q2%
SFE,209,1,RDSF,1,0.72
SFE,209,1,RDSF,2,2
SFE,209,1,HFLUX,1,%Q5%
SFE,209,5,RDSF,1,0.72
SFE,209,5,RDSF,2,2
SFE,209,5,HFLUX,1,%Q1%
SFE,210,1,RDSF,1,0.72
SFE,210,1,RDSF,2,2
SFE,210,1,HFLUX,1,%Q5%
SFE,211,1,RDSF,1,0.72
SFE,211,1,RDSF,2,2
SFE,211,1,HFLUX,1,%Q5%
SFE,212,1,RDSF,1,0.72
SFE,212,1,RDSF,2,2
SFE,212,1,HFLUX,1,%Q5%
SFE,213,1,RDSF,1,0.72
SFE,213,1,RDSF,2,2
SFE,213,1,HFLUX,1,%Q5%
SFE,214,1,RDSF,1,0.72
SFE,214,1,RDSF,2,2
SFE,214,1,HFLUX,1,%Q5%
SFE,215,1,RDSF,1,0.72
SFE,215,1,RDSF,2,2
SFE,215,1,HFLUX,1,%Q5%
SFE,216,1,RDSF,1,0.72
SFE,216,1,RDSF,2,2
SFE,216,1,HFLUX,1,%Q5%
SFE,217,1,RDSF,1,0.72
SFE,217,1,RDSF,2,2
SFE,217,1,HFLUX,1,%Q5%
SFE,218,1,RDSF,1,0.72
SFE,218,1,RDSF,2,2
SFE,218,1,HFLUX,1,%Q5%
SFE,219,1,RDSF,1,0.72
SFE,219,1,RDSF,2,2
SFE,219,1,HFLUX,1,%Q5%
SFE,220,1,RDSF,1,0.72
SFE,220,1,RDSF,2,2
SFE,220,1,HFLUX,1,%Q5%
SFE,221,1,RDSF,1,0.72
SFE,221,1,RDSF,2,2
SFE,221,1,HFLUX,1,%Q5%
SFE,222,1,RDSF,1,0.72
SFE,222,1,RDSF,2,2
SFE,222,1,HFLUX,1,%Q5%
SFE,223,1,RDSF,1,0.72
SFE,223,1,RDSF,2,2
SFE,223,1,HFLUX,1,%Q5%
SFE,224,1,RDSF,1,0.72
SFE,224,1,RDSF,2,2
SFE,224,1,HFLUX,1,%Q5%
SFE,224,3,RDSF,1,0.72
SFE,224,3,RDSF,2,2
SFE,224,3,HFLUX,1,%Q2%
SFE,225,1,RDSF,1,0.72
SFE,225,1,RDSF,2,2
SFE,225,1,HFLUX,1,%Q5%
SFE,225,5,RDSF,1,0.72
SFE,225,5,RDSF,2,2
SFE,225,5,HFLUX,1,%Q1%
SFE,226,1,RDSF,1,0.72
SFE,226,1,RDSF,2,2
SFE,226,1,HFLUX,1,%Q5%
SFE,227,1,RDSF,1,0.72
SFE,227,1,RDSF,2,2
SFE,227,1,HFLUX,1,%Q5%
SFE,228,1,RDSF,1,0.72
SFE,228,1,RDSF,2,2
SFE,228,1,HFLUX,1,%Q5%
SFE,229,1,RDSF,1,0.72
SFE,229,1,RDSF,2,2
SFE,229,1,HFLUX,1,%Q5%
SFE,230,1,RDSF,1,0.72
SFE,230,1,RDSF,2,2
SFE,230,1,HFLUX,1,%Q5%
SFE,231,1,RDSF,1,0.72
SFE,231,1,RDSF,2,2
SFE,231,1,HFLUX,1,%Q5%
SFE,232,1,RDSF,1,0.72
SFE,232,1,RDSF,2,2
SFE,232,1,HFLUX,1,%Q5%
SFE,233,1,RDSF,1,0.72
SFE,233,1,RDSF,2,2
SFE,233,1,HFLUX,1,%Q5%
SFE,234,1,RDSF,1,0.72
SFE,234,1,RDSF,2,2
SFE,234,1,HFLUX,1,%Q5%
SFE,235,1,RDSF,1,0.72
SFE,235,1,RDSF,2,2
SFE,235,1,HFLUX,1,%Q5%
SFE,236,1,RDSF,1,0.72
SFE,236,1,RDSF,2,2
SFE,236,1,HFLUX,1,%Q5%
SFE,237,1,RDSF,1,0.72
SFE,237,1,RDSF,2,2
SFE,237,1,HFLUX,1,%Q5%
SFE,238,1,RDSF,1,0.72
SFE,238,1,RDSF,2,2
SFE,238,1,HFLUX,1,%Q5%
SFE,239,1,RDSF,1,0.72
SFE,239,1,RDSF,2,2
SFE,239,1,HFLUX,1,%Q5%
SFE,240,1,RDSF,1,0.72
SFE,240,1,RDSF,2,2
SFE,240,1,HFLUX,1,%Q5%
SFE,240,3,RDSF,1,0.72
SFE,240,3,RDSF,2,2
SFE,240,3,HFLUX,1,%Q2%
SFE,241,1,RDSF,1,0.72
SFE,241,1,RDSF,2,2
SFE,241,1,HFLUX,1,%Q5%
SFE,241,4,RDSF,1,0.72
SFE,241,4,RDSF,2,2
SFE,241,4,HFLUX,1,%Q4%
SFE,241,5,RDSF,1,0.72
SFE,241,5,RDSF,2,2
SFE,241,5,HFLUX,1,%Q1%
SFE,242,1,RDSF,1,0.72
SFE,242,1,RDSF,2,2
SFE,242,1,HFLUX,1,%Q5%
SFE,242,4,RDSF,1,0.72
SFE,242,4,RDSF,2,2
SFE,242,4,HFLUX,1,%Q4%
SFE,243,1,RDSF,1,0.72
SFE,243,1,RDSF,2,2
SFE,243,1,HFLUX,1,%Q5%
SFE,243,4,RDSF,1,0.72
SFE,243,4,RDSF,2,2
SFE,243,4,HFLUX,1,%Q4%
SFE,244,1,RDSF,1,0.72
SFE,244,1,RDSF,2,2
SFE,244,1,HFLUX,1,%Q5%
SFE,244,4,RDSF,1,0.72
SFE,244,4,RDSF,2,2
SFE,244,4,HFLUX,1,%Q4%
SFE,245,1,RDSF,1,0.72
SFE,245,1,RDSF,2,2
SFE,245,1,HFLUX,1,%Q5%
SFE,245,4,RDSF,1,0.72
SFE,245,4,RDSF,2,2
SFE,245,4,HFLUX,1,%Q4%
SFE,246,1,RDSF,1,0.72
SFE,246,1,RDSF,2,2
SFE,246,1,HFLUX,1,%Q5%
SFE,246,4,RDSF,1,0.72
SFE,246,4,RDSF,2,2
SFE,246,4,HFLUX,1,%Q4%
SFE,247,1,RDSF,1,0.72
SFE,247,1,RDSF,2,2
SFE,247,1,HFLUX,1,%Q5%
SFE,247,4,RDSF,1,0.72
SFE,247,4,RDSF,2,2
SFE,247,4,HFLUX,1,%Q4%
SFE,248,1,RDSF,1,0.72
SFE,248,1,RDSF,2,2
SFE,248,1,HFLUX,1,%Q5%
SFE,248,4,RDSF,1,0.72
SFE,248,4,RDSF,2,2
SFE,248,4,HFLUX,1,%Q4%
SFE,249,1,RDSF,1,0.72
SFE,249,1,RDSF,2,2
SFE,249,1,HFLUX,1,%Q5%
SFE,249,4,RDSF,1,0.72
SFE,249,4,RDSF,2,2
SFE,249,4,HFLUX,1,%Q4%
SFE,250,1,RDSF,1,0.72
SFE,250,1,RDSF,2,2
SFE,250,1,HFLUX,1,%Q5%
SFE,250,4,RDSF,1,0.72
SFE,250,4,RDSF,2,2
SFE,250,4,HFLUX,1,%Q4%
SFE,251,1,RDSF,1,0.72
SFE,251,1,RDSF,2,2
SFE,251,1,HFLUX,1,%Q5%
SFE,251,4,RDSF,1,0.72
SFE,251,4,RDSF,2,2
SFE,251,4,HFLUX,1,%Q4%
SFE,252,1,RDSF,1,0.72
SFE,252,1,RDSF,2,2
SFE,252,1,HFLUX,1,%Q5%
SFE,252,4,RDSF,1,0.72
SFE,252,4,RDSF,2,2
SFE,252,4,HFLUX,1,%Q4%
SFE,253,1,RDSF,1,0.72
SFE,253,1,RDSF,2,2
SFE,253,1,HFLUX,1,%Q5%
SFE,253,4,RDSF,1,0.72
SFE,253,4,RDSF,2,2
SFE,253,4,HFLUX,1,%Q4%
SFE,254,1,RDSF,1,0.72
SFE,254,1,RDSF,2,2
SFE,254,1,HFLUX,1,%Q5%
SFE,254,4,RDSF,1,0.72
SFE,254,4,RDSF,2,2
SFE,254,4,HFLUX,1,%Q4%
SFE,255,1,RDSF,1,0.72
SFE,255,1,RDSF,2,2
SFE,255,1,HFLUX,1,%Q5%
SFE,255,4,RDSF,1,0.72
SFE,255,4,RDSF,2,2
SFE,255,4,HFLUX,1,%Q4%
SFE,256,1,RDSF,1,0.72
SFE,256,1,RDSF,2,2
SFE,256,1,HFLUX,1,%Q5%
SFE,256,3,RDSF,1,0.72
SFE,256,3,RDSF,2,2
SFE,256,3,HFLUX,1,%Q2%
SFE,256,4,RDSF,1,0.72
SFE,256,4,RDSF,2,2
SFE,256,4,HFLUX,1,%Q4%
SFE,257,2,RDSF,1,0.72
SFE,257,2,RDSF,2,2
SFE,257,2,HFLUX,1,%Q3%
SFE,257,5,RDSF,1,0.72
SFE,257,5,RDSF,2,2
SFE,257,5,HFLUX,1,%Q1%
SFE,258,2,RDSF,1,0.72
SFE,258,2,RDSF,2,2
SFE,258,2,HFLUX,1,%Q3%
SFE,259,2,RDSF,1,0.72
SFE,259,2,RDSF,2,2
SFE,259,2,HFLUX,1,%Q3%
SFE,260,2,RDSF,1,0.72
SFE,260,2,RDSF,2,2
SFE,260,2,HFLUX,1,%Q3%
SFE,261,2,RDSF,1,0.72
SFE,261,2,RDSF,2,2
SFE,261,2,HFLUX,1,%Q3%
SFE,262,2,RDSF,1,0.72
SFE,262,2,RDSF,2,2
SFE,262,2,HFLUX,1,%Q3%
SFE,263,2,RDSF,1,0.72
SFE,263,2,RDSF,2,2
SFE,263,2,HFLUX,1,%Q3%
SFE,264,2,RDSF,1,0.72
SFE,264,2,RDSF,2,2
SFE,264,2,HFLUX,1,%Q3%
SFE,265,2,RDSF,1,0.72
SFE,265,2,RDSF,2,2
SFE,265,2,HFLUX,1,%Q3%
SFE,266,2,RDSF,1,0.72
SFE,266,2,RDSF,2,2
SFE,266,2,HFLUX,1,%Q3%
SFE,267,2,RDSF,1,0.72
SFE,267,2,RDSF,2,2
SFE,267,2,HFLUX,1,%Q3%
SFE,268,2,RDSF,1,0.72
SFE,268,2,RDSF,2,2
SFE,268,2,HFLUX,1,%Q3%
SFE,269,2,RDSF,1,0.72
SFE,269,2,RDSF,2,2
SFE,269,2,HFLUX,1,%Q3%
SFE,270,2,RDSF,1,0.72
SFE,270,2,RDSF,2,2
SFE,270,2,HFLUX,1,%Q3%
SFE,271,2,RDSF,1,0.72
SFE,271,2,RDSF,2,2
SFE,271,2,HFLUX,1,%Q3%
SFE,272,2,RDSF,1,0.72
SFE,272,2,RDSF,2,2
SFE,272,2,HFLUX,1,%Q3%
SFE,272,3,RDSF,1,0.72
SFE,272,3,RDSF,2,2
SFE,272,3,HFLUX,1,%Q2%
SFE,273,5,RDSF,1,0.72
SFE,273,5,RDSF,2,2
SFE,273,5,HFLUX,1,%Q1%
SFE,276,6,RDSF,1,0.5
SFE,276,6,RDSF,2,1
SFE,277,6,RDSF,1,0.5
SFE,277,6,RDSF,2,1
SFE,278,6,RDSF,1,0.5
SFE,278,6,RDSF,2,1
SFE,279,6,RDSF,1,0.5
SFE,279,6,RDSF,2,1
SFE,280,6,RDSF,1,0.5
SFE,280,6,RDSF,2,1
SFE,281,6,RDSF,1,0.5
SFE,281,6,RDSF,2,1
SFE,282,6,RDSF,1,0.5
SFE,282,6,RDSF,2,1
SFE,283,6,RDSF,1,0.5
SFE,283,6,RDSF,2,1
SFE,284,6,RDSF,1,0.5
SFE,284,6,RDSF,2,1
SFE,285,6,RDSF,1,0.5
SFE,285,6,RDSF,2,1
SFE,288,3,RDSF,1,0.72
SFE,288,3,RDSF,2,2
SFE,288,3,HFLUX,1,%Q2%
SFE,289,5,RDSF,1,0.72
SFE,289,5,RDSF,2,2
SFE,289,5,HFLUX,1,%Q1%
SFE,292,4,RDSF,1,0.5
SFE,292,4,RDSF,2,1
SFE,292,6,RDSF,1,0.5
SFE,292,6,RDSF,2,1
SFE,293,4,RDSF,1,0.5
SFE,293,4,RDSF,2,1
SFE,293,6,RDSF,1,0.5
SFE,293,6,RDSF,2,1
SFE,294,4,RDSF,1,0.5
SFE,294,4,RDSF,2,1
SFE,294,6,RDSF,1,0.5
SFE,294,6,RDSF,2,1
SFE,295,4,RDSF,1,0.5
SFE,295,4,RDSF,2,1
SFE,295,6,RDSF,1,0.5
SFE,295,6,RDSF,2,1
SFE,296,4,RDSF,1,0.5
SFE,296,4,RDSF,2,1
SFE,296,6,RDSF,1,0.5
SFE,296,6,RDSF,2,1
SFE,297,4,RDSF,1,0.5
SFE,297,4,RDSF,2,1
SFE,297,6,RDSF,1,0.5
SFE,297,6,RDSF,2,1
SFE,298,4,RDSF,1,0.5
SFE,298,4,RDSF,2,1
SFE,298,6,RDSF,1,0.5
SFE,298,6,RDSF,2,1
SFE,299,4,RDSF,1,0.5
SFE,299,4,RDSF,2,1
SFE,299,6,RDSF,1,0.5
SFE,299,6,RDSF,2,1
SFE,300,4,RDSF,1,0.5
SFE,300,4,RDSF,2,1
SFE,300,6,RDSF,1,0.5
SFE,300,6,RDSF,2,1
SFE,301,4,RDSF,1,0.5
SFE,301,4,RDSF,2,1
SFE,301,6,RDSF,1,0.5
SFE,301,6,RDSF,2,1
SFE,304,3,RDSF,1,0.72
SFE,304,3,RDSF,2,2
SFE,304,3,HFLUX,1,%Q2%
SFE,305,5,RDSF,1,0.72
SFE,305,5,RDSF,2,2
SFE,305,5,HFLUX,1,%Q1%
SFE,306,6,RDSF,1,0.5
SFE,306,6,RDSF,2,1
SFE,307,3,RDSF,1,0.5
SFE,307,3,RDSF,2,1
SFE,307,6,RDSF,1,0.5
SFE,307,6,RDSF,2,1
SFE,308,5,RDSF,1,0.5
SFE,308,5,RDSF,2,1
SFE,308,6,RDSF,1,0.5
SFE,308,6,RDSF,2,1
SFE,309,6,RDSF,1,0.5
SFE,309,6,RDSF,2,1
SFE,310,3,RDSF,1,0.72
SFE,310,3,RDSF,2,2
SFE,310,3,HFLUX,1,%Q2%
SFE,311,5,RDSF,1,0.72
SFE,311,5,RDSF,2,2
SFE,311,5,HFLUX,1,%Q1%
SFE,312,6,RDSF,1,0.5
SFE,312,6,RDSF,2,1
SFE,313,3,RDSF,1,0.5
SFE,313,3,RDSF,2,1
SFE,313,6,RDSF,1,0.5
SFE,313,6,RDSF,2,1
SFE,314,2,RDSF,1,0.5
SFE,314,2,RDSF,2,1
SFE,314,3,RDSF,1,0.5
SFE,314,3,RDSF,2,1
SFE,314,4,RDSF,1,0.5
SFE,314,4,RDSF,2,1
SFE,314,5,RDSF,1,0.5
SFE,314,5,RDSF,2,1
SFE,315,2,RDSF,1,0.5
SFE,315,2,RDSF,2,1
SFE,315,3,RDSF,1,0.5
SFE,315,3,RDSF,2,1
SFE,315,4,RDSF,1,0.5
SFE,315,4,RDSF,2,1
SFE,315,5,RDSF,1,0.5
SFE,315,5,RDSF,2,1
SFE,316,5,RDSF,1,0.5
SFE,316,5,RDSF,2,1
SFE,316,6,RDSF,1,0.5
SFE,316,6,RDSF,2,1
SFE,317,6,RDSF,1,0.5
SFE,317,6,RDSF,2,1
SFE,318,3,RDSF,1,0.72
SFE,318,3,RDSF,2,2
SFE,318,3,HFLUX,1,%Q2%
SFE,319,5,RDSF,1,0.72
SFE,319,5,RDSF,2,2
SFE,319,5,HFLUX,1,%Q1%
SFE,320,6,RDSF,1,0.5
SFE,320,6,RDSF,2,1
SFE,321,3,RDSF,1,0.5
SFE,321,3,RDSF,2,1
SFE,321,6,RDSF,1,0.5
SFE,321,6,RDSF,2,1
SFE,322,5,RDSF,1,0.5
SFE,322,5,RDSF,2,1
SFE,322,6,RDSF,1,0.5
SFE,322,6,RDSF,2,1
SFE,323,6,RDSF,1,0.5
SFE,323,6,RDSF,2,1
SFE,324,3,RDSF,1,0.72
SFE,324,3,RDSF,2,2
SFE,324,3,HFLUX,1,%Q2%
SFE,325,5,RDSF,1,0.72
SFE,325,5,RDSF,2,2
SFE,325,5,HFLUX,1,%Q1%
SFE,326,6,RDSF,1,0.5
SFE,326,6,RDSF,2,1
SFE,327,3,RDSF,1,0.5
SFE,327,3,RDSF,2,1
SFE,327,6,RDSF,1,0.5
SFE,327,6,RDSF,2,1
SFE,328,5,RDSF,1,0.5
SFE,328,5,RDSF,2,1
SFE,328,6,RDSF,1,0.5
SFE,328,6,RDSF,2,1
SFE,329,6,RDSF,1,0.5
SFE,329,6,RDSF,2,1
SFE,330,3,RDSF,1,0.72
SFE,330,3,RDSF,2,2
SFE,330,3,HFLUX,1,%Q2%
SFE,331,5,RDSF,1,0.72
SFE,331,5,RDSF,2,2
SFE,331,5,HFLUX,1,%Q1%
SFE,332,6,RDSF,1,0.5
SFE,332,6,RDSF,2,1
SFE,333,3,RDSF,1,0.5
SFE,333,3,RDSF,2,1
SFE,333,6,RDSF,1,0.5
SFE,333,6,RDSF,2,1
SFE,334,5,RDSF,1,0.5
SFE,334,5,RDSF,2,1
SFE,334,6,RDSF,1,0.5
SFE,334,6,RDSF,2,1
SFE,335,6,RDSF,1,0.5
SFE,335,6,RDSF,2,1
SFE,336,3,RDSF,1,0.72
SFE,336,3,RDSF,2,2
SFE,336,3,HFLUX,1,%Q2%
SFE,337,5,RDSF,1,0.72
SFE,337,5,RDSF,2,2
SFE,337,5,HFLUX,1,%Q1%
SFE,338,6,RDSF,1,0.5
SFE,338,6,RDSF,2,1
SFE,339,3,RDSF,1,0.5
SFE,339,3,RDSF,2,1
SFE,339,6,RDSF,1,0.5
SFE,339,6,RDSF,2,1
SFE,340,5,RDSF,1,0.5
SFE,340,5,RDSF,2,1
SFE,340,6,RDSF,1,0.5
SFE,340,6,RDSF,2,1
SFE,341,6,RDSF,1,0.5
SFE,341,6,RDSF,2,1
SFE,342,3,RDSF,1,0.72
SFE,342,3,RDSF,2,2
SFE,342,3,HFLUX,1,%Q2%
SFE,343,5,RDSF,1,0.72
SFE,343,5,RDSF,2,2
SFE,343,5,HFLUX,1,%Q1%
SFE,344,6,RDSF,1,0.5
SFE,344,6,RDSF,2,1
SFE,345,3,RDSF,1,0.5
SFE,345,3,RDSF,2,1
SFE,345,6,RDSF,1,0.5
SFE,345,6,RDSF,2,1
SFE,346,5,RDSF,1,0.5
SFE,346,5,RDSF,2,1
SFE,346,6,RDSF,1,0.5
SFE,346,6,RDSF,2,1
SFE,347,6,RDSF,1,0.5
SFE,347,6,RDSF,2,1
SFE,348,3,RDSF,1,0.72
SFE,348,3,RDSF,2,2
SFE,348,3,HFLUX,1,%Q2%
SFE,349,5,RDSF,1,0.72
SFE,349,5,RDSF,2,2
SFE,349,5,HFLUX,1,%Q1%
SFE,350,6,RDSF,1,0.5
SFE,350,6,RDSF,2,1
SFE,351,3,RDSF,1,0.5
SFE,351,3,RDSF,2,1
SFE,351,6,RDSF,1,0.5
SFE,351,6,RDSF,2,1
SFE,352,5,RDSF,1,0.5
SFE,352,5,RDSF,2,1
SFE,352,6,RDSF,1,0.5
SFE,352,6,RDSF,2,1
SFE,353,6,RDSF,1,0.5
SFE,353,6,RDSF,2,1
SFE,354,3,RDSF,1,0.72
SFE,354,3,RDSF,2,2
SFE,354,3,HFLUX,1,%Q2%
SFE,355,5,RDSF,1,0.72
SFE,355,5,RDSF,2,2
SFE,355,5,HFLUX,1,%Q1%
SFE,356,6,RDSF,1,0.5
SFE,356,6,RDSF,2,1
SFE,357,3,RDSF,1,0.5
SFE,357,3,RDSF,2,1
SFE,357,6,RDSF,1,0.5
SFE,357,6,RDSF,2,1
SFE,358,2,RDSF,1,0.5
SFE,358,2,RDSF,2,1
SFE,358,3,RDSF,1,0.5
SFE,358,3,RDSF,2,1
SFE,358,4,RDSF,1,0.5
SFE,358,4,RDSF,2,1
SFE,358,5,RDSF,1,0.5
SFE,358,5,RDSF,2,1
SFE,359,2,RDSF,1,0.5
SFE,359,2,RDSF,2,1
SFE,359,3,RDSF,1,0.5
SFE,359,3,RDSF,2,1
SFE,359,4,RDSF,1,0.5
SFE,359,4,RDSF,2,1
SFE,359,5,RDSF,1,0.5
SFE,359,5,RDSF,2,1
SFE,360,5,RDSF,1,0.5
SFE,360,5,RDSF,2,1
SFE,360,6,RDSF,1,0.5
SFE,360,6,RDSF,2,1
SFE,361,6,RDSF,1,0.5
SFE,361,6,RDSF,2,1
SFE,362,3,RDSF,1,0.72
SFE,362,3,RDSF,2,2
SFE,362,3,HFLUX,1,%Q2%
SFE,363,5,RDSF,1,0.72
SFE,363,5,RDSF,2,2
SFE,363,5,HFLUX,1,%Q1%
SFE,364,6,RDSF,1,0.5
SFE,364,6,RDSF,2,1
SFE,365,3,RDSF,1,0.5
SFE,365,3,RDSF,2,1
SFE,365,6,RDSF,1,0.5
SFE,365,6,RDSF,2,1
SFE,366,5,RDSF,1,0.5
SFE,366,5,RDSF,2,1
SFE,366,6,RDSF,1,0.5
SFE,366,6,RDSF,2,1
SFE,367,6,RDSF,1,0.5
SFE,367,6,RDSF,2,1
SFE,368,3,RDSF,1,0.72
SFE,368,3,RDSF,2,2
SFE,368,3,HFLUX,1,%Q2%
SFE,369,5,RDSF,1,0.72
SFE,369,5,RDSF,2,2
SFE,369,5,HFLUX,1,%Q1%
SFE,372,2,RDSF,1,0.5
SFE,372,2,RDSF,2,1
SFE,372,6,RDSF,1,0.5
SFE,372,6,RDSF,2,1
SFE,373,2,RDSF,1,0.5
SFE,373,2,RDSF,2,1
SFE,373,6,RDSF,1,0.5
SFE,373,6,RDSF,2,1
SFE,374,2,RDSF,1,0.5
SFE,374,2,RDSF,2,1
SFE,374,6,RDSF,1,0.5
SFE,374,6,RDSF,2,1
SFE,375,2,RDSF,1,0.5
SFE,375,2,RDSF,2,1
SFE,375,6,RDSF,1,0.5
SFE,375,6,RDSF,2,1
SFE,376,2,RDSF,1,0.5
SFE,376,2,RDSF,2,1
SFE,376,6,RDSF,1,0.5
SFE,376,6,RDSF,2,1
SFE,377,2,RDSF,1,0.5
SFE,377,2,RDSF,2,1
SFE,377,6,RDSF,1,0.5
SFE,377,6,RDSF,2,1
SFE,378,2,RDSF,1,0.5
SFE,378,2,RDSF,2,1
SFE,378,6,RDSF,1,0.5
SFE,378,6,RDSF,2,1
SFE,379,2,RDSF,1,0.5
SFE,379,2,RDSF,2,1
SFE,379,6,RDSF,1,0.5
SFE,379,6,RDSF,2,1
SFE,380,2,RDSF,1,0.5
SFE,380,2,RDSF,2,1
SFE,380,6,RDSF,1,0.5
SFE,380,6,RDSF,2,1
SFE,381,2,RDSF,1,0.5
SFE,381,2,RDSF,2,1
SFE,381,6,RDSF,1,0.5
SFE,381,6,RDSF,2,1
SFE,384,3,RDSF,1,0.72
SFE,384,3,RDSF,2,2
SFE,384,3,HFLUX,1,%Q2%
SFE,385,5,RDSF,1,0.72
SFE,385,5,RDSF,2,2
SFE,385,5,HFLUX,1,%Q1%
SFE,388,6,RDSF,1,0.5
SFE,388,6,RDSF,2,1
SFE,389,6,RDSF,1,0.5
SFE,389,6,RDSF,2,1
SFE,390,6,RDSF,1,0.5
SFE,390,6,RDSF,2,1
SFE,391,6,RDSF,1,0.5
SFE,391,6,RDSF,2,1
SFE,392,6,RDSF,1,0.5
SFE,392,6,RDSF,2,1
SFE,393,6,RDSF,1,0.5
SFE,393,6,RDSF,2,1
SFE,394,6,RDSF,1,0.5
SFE,394,6,RDSF,2,1
SFE,395,6,RDSF,1,0.5
SFE,395,6,RDSF,2,1
SFE,396,6,RDSF,1,0.5
SFE,396,6,RDSF,2,1
SFE,397,6,RDSF,1,0.5
SFE,397,6,RDSF,2,1
SFE,400,3,RDSF,1,0.72
SFE,400,3,RDSF,2,2
SFE,400,3,HFLUX,1,%Q2%
SFE,401,4,RDSF,1,0.72
SFE,401,4,RDSF,2,2
SFE,401,4,HFLUX,1,%Q4%
SFE,401,5,RDSF,1,0.72
SFE,401,5,RDSF,2,2
SFE,401,5,HFLUX,1,%Q1%
SFE,402,4,RDSF,1,0.72
SFE,402,4,RDSF,2,2
SFE,402,4,HFLUX,1,%Q4%
SFE,403,4,RDSF,1,0.72
SFE,403,4,RDSF,2,2
SFE,403,4,HFLUX,1,%Q4%
SFE,404,4,RDSF,1,0.72
SFE,404,4,RDSF,2,2
SFE,404,4,HFLUX,1,%Q4%
SFE,405,4,RDSF,1,0.72
SFE,405,4,RDSF,2,2
SFE,405,4,HFLUX,1,%Q4%
SFE,406,4,RDSF,1,0.72
SFE,406,4,RDSF,2,2
SFE,406,4,HFLUX,1,%Q4%
SFE,407,4,RDSF,1,0.72
SFE,407,4,RDSF,2,2
SFE,407,4,HFLUX,1,%Q4%
SFE,408,4,RDSF,1,0.72
SFE,408,4,RDSF,2,2
SFE,408,4,HFLUX,1,%Q4%
SFE,409,4,RDSF,1,0.72
SFE,409,4,RDSF,2,2
SFE,409,4,HFLUX,1,%Q4%
SFE,410,4,RDSF,1,0.72
SFE,410,4,RDSF,2,2
SFE,410,4,HFLUX,1,%Q4%
SFE,411,4,RDSF,1,0.72
SFE,411,4,RDSF,2,2
SFE,411,4,HFLUX,1,%Q4%
SFE,412,4,RDSF,1,0.72
SFE,412,4,RDSF,2,2
SFE,412,4,HFLUX,1,%Q4%
SFE,413,4,RDSF,1,0.72
SFE,413,4,RDSF,2,2
SFE,413,4,HFLUX,1,%Q4%
SFE,414,4,RDSF,1,0.72
SFE,414,4,RDSF,2,2
SFE,414,4,HFLUX,1,%Q4%
SFE,415,4,RDSF,1,0.72
SFE,415,4,RDSF,2,2
SFE,415,4,HFLUX,1,%Q4%
SFE,416,3,RDSF,1,0.72
SFE,416,3,RDSF,2,2
SFE,416,3,HFLUX,1,%Q2%
SFE,416,4,RDSF,1,0.72
SFE,416,4,RDSF,2,2
SFE,416,4,HFLUX,1,%Q4%
SFE,417,2,RDSF,1,0.72
SFE,417,2,RDSF,2,2
SFE,417,2,HFLUX,1,%Q3%
SFE,417,5,RDSF,1,0.72
SFE,417,5,RDSF,2,2
SFE,417,5,HFLUX,1,%Q1%
SFE,418,2,RDSF,1,0.72
SFE,418,2,RDSF,2,2
SFE,418,2,HFLUX,1,%Q3%
SFE,419,2,RDSF,1,0.72
SFE,419,2,RDSF,2,2
SFE,419,2,HFLUX,1,%Q3%
SFE,420,2,RDSF,1,0.72
SFE,420,2,RDSF,2,2
SFE,420,2,HFLUX,1,%Q3%
SFE,420,4,RDSF,1,0.5
SFE,420,4,RDSF,2,1
SFE,421,2,RDSF,1,0.72
SFE,421,2,RDSF,2,2
SFE,421,2,HFLUX,1,%Q3%
SFE,421,4,RDSF,1,0.5
SFE,421,4,RDSF,2,1
SFE,422,2,RDSF,1,0.72
SFE,422,2,RDSF,2,2
SFE,422,2,HFLUX,1,%Q3%
SFE,422,4,RDSF,1,0.5
SFE,422,4,RDSF,2,1
SFE,423,2,RDSF,1,0.72
SFE,423,2,RDSF,2,2
SFE,423,2,HFLUX,1,%Q3%
SFE,423,4,RDSF,1,0.5
SFE,423,4,RDSF,2,1
SFE,424,2,RDSF,1,0.72
SFE,424,2,RDSF,2,2
SFE,424,2,HFLUX,1,%Q3%
SFE,424,4,RDSF,1,0.5
SFE,424,4,RDSF,2,1
SFE,425,2,RDSF,1,0.72
SFE,425,2,RDSF,2,2
SFE,425,2,HFLUX,1,%Q3%
SFE,425,4,RDSF,1,0.5
SFE,425,4,RDSF,2,1
SFE,426,2,RDSF,1,0.72
SFE,426,2,RDSF,2,2
SFE,426,2,HFLUX,1,%Q3%
SFE,426,4,RDSF,1,0.5
SFE,426,4,RDSF,2,1
SFE,427,2,RDSF,1,0.72
SFE,427,2,RDSF,2,2
SFE,427,2,HFLUX,1,%Q3%
SFE,427,4,RDSF,1,0.5
SFE,427,4,RDSF,2,1
SFE,428,2,RDSF,1,0.72
SFE,428,2,RDSF,2,2
SFE,428,2,HFLUX,1,%Q3%
SFE,428,4,RDSF,1,0.5
SFE,428,4,RDSF,2,1
SFE,429,2,RDSF,1,0.72
SFE,429,2,RDSF,2,2
SFE,429,2,HFLUX,1,%Q3%
SFE,429,4,RDSF,1,0.5
SFE,429,4,RDSF,2,1
SFE,430,2,RDSF,1,0.72
SFE,430,2,RDSF,2,2
SFE,430,2,HFLUX,1,%Q3%
SFE,431,2,RDSF,1,0.72
SFE,431,2,RDSF,2,2
SFE,431,2,HFLUX,1,%Q3%
SFE,432,2,RDSF,1,0.72
SFE,432,2,RDSF,2,2
SFE,432,2,HFLUX,1,%Q3%
SFE,432,3,RDSF,1,0.72
SFE,432,3,RDSF,2,2
SFE,432,3,HFLUX,1,%Q2%
SFE,433,5,RDSF,1,0.72
SFE,433,5,RDSF,2,2
SFE,433,5,HFLUX,1,%Q1%
SFE,435,3,RDSF,1,0.5
SFE,435,3,RDSF,2,1
SFE,436,5,RDSF,1,0.5
SFE,436,5,RDSF,2,1
SFE,438,3,RDSF,1,0.72
SFE,438,3,RDSF,2,2
SFE,438,3,HFLUX,1,%Q2%
SFE,439,5,RDSF,1,0.72
SFE,439,5,RDSF,2,2
SFE,439,5,HFLUX,1,%Q1%
SFE,440,4,RDSF,1,0.5
SFE,440,4,RDSF,2,1
SFE,441,3,RDSF,1,0.5
SFE,441,3,RDSF,2,1
SFE,441,4,RDSF,1,0.5
SFE,441,4,RDSF,2,1
SFE,442,4,RDSF,1,0.5
SFE,442,4,RDSF,2,1
SFE,442,5,RDSF,1,0.5
SFE,442,5,RDSF,2,1
SFE,443,4,RDSF,1,0.5
SFE,443,4,RDSF,2,1
SFE,444,3,RDSF,1,0.72
SFE,444,3,RDSF,2,2
SFE,444,3,HFLUX,1,%Q2%
SFE,445,3,RDSF,1,0.5
SFE,445,3,RDSF,2,1
SFE,445,5,RDSF,1,0.72
SFE,445,5,RDSF,2,2
SFE,445,5,HFLUX,1,%Q1%
SFE,446,3,RDSF,1,0.72
SFE,446,3,RDSF,2,2
SFE,446,3,HFLUX,1,%Q2%
SFE,446,5,RDSF,1,0.5
SFE,446,5,RDSF,2,1
SFE,447,3,RDSF,1,0.5
SFE,447,3,RDSF,2,1
SFE,447,5,RDSF,1,0.72
SFE,447,5,RDSF,2,2
SFE,447,5,HFLUX,1,%Q1%
SFE,448,2,RDSF,1,0.5
SFE,448,2,RDSF,2,1
SFE,448,3,RDSF,1,0.5
SFE,448,3,RDSF,2,1
SFE,448,4,RDSF,1,0.5
SFE,448,4,RDSF,2,1
SFE,448,5,RDSF,1,0.5
SFE,448,5,RDSF,2,1
SFE,449,2,RDSF,1,0.5
SFE,449,2,RDSF,2,1
SFE,449,3,RDSF,1,0.5
SFE,449,3,RDSF,2,1
SFE,449,4,RDSF,1,0.5
SFE,449,4,RDSF,2,1
SFE,449,5,RDSF,1,0.5
SFE,449,5,RDSF,2,1
SFE,450,3,RDSF,1,0.72
SFE,450,3,RDSF,2,2
SFE,450,3,HFLUX,1,%Q2%
SFE,450,5,RDSF,1,0.5
SFE,450,5,RDSF,2,1
SFE,451,3,RDSF,1,0.5
SFE,451,3,RDSF,2,1
SFE,451,5,RDSF,1,0.72
SFE,451,5,RDSF,2,2
SFE,451,5,HFLUX,1,%Q1%
SFE,452,3,RDSF,1,0.72
SFE,452,3,RDSF,2,2
SFE,452,3,HFLUX,1,%Q2%
SFE,452,5,RDSF,1,0.5
SFE,452,5,RDSF,2,1
SFE,453,3,RDSF,1,0.5
SFE,453,3,RDSF,2,1
SFE,453,5,RDSF,1,0.72
SFE,453,5,RDSF,2,2
SFE,453,5,HFLUX,1,%Q1%
SFE,454,3,RDSF,1,0.72
SFE,454,3,RDSF,2,2
SFE,454,3,HFLUX,1,%Q2%
SFE,454,5,RDSF,1,0.5
SFE,454,5,RDSF,2,1
SFE,455,3,RDSF,1,0.5
SFE,455,3,RDSF,2,1
SFE,455,5,RDSF,1,0.72
SFE,455,5,RDSF,2,2
SFE,455,5,HFLUX,1,%Q1%
SFE,456,3,RDSF,1,0.72
SFE,456,3,RDSF,2,2
SFE,456,3,HFLUX,1,%Q2%
SFE,456,5,RDSF,1,0.5
SFE,456,5,RDSF,2,1
SFE,457,3,RDSF,1,0.5
SFE,457,3,RDSF,2,1
SFE,457,5,RDSF,1,0.72
SFE,457,5,RDSF,2,2
SFE,457,5,HFLUX,1,%Q1%
SFE,458,3,RDSF,1,0.72
SFE,458,3,RDSF,2,2
SFE,458,3,HFLUX,1,%Q2%
SFE,458,5,RDSF,1,0.5
SFE,458,5,RDSF,2,1
SFE,459,3,RDSF,1,0.5
SFE,459,3,RDSF,2,1
SFE,459,5,RDSF,1,0.72
SFE,459,5,RDSF,2,2
SFE,459,5,HFLUX,1,%Q1%
SFE,460,3,RDSF,1,0.72
SFE,460,3,RDSF,2,2
SFE,460,3,HFLUX,1,%Q2%
SFE,460,5,RDSF,1,0.5
SFE,460,5,RDSF,2,1
SFE,461,3,RDSF,1,0.5
SFE,461,3,RDSF,2,1
SFE,461,5,RDSF,1,0.72
SFE,461,5,RDSF,2,2
SFE,461,5,HFLUX,1,%Q1%
SFE,462,3,RDSF,1,0.72
SFE,462,3,RDSF,2,2
SFE,462,3,HFLUX,1,%Q2%
SFE,462,5,RDSF,1,0.5
SFE,462,5,RDSF,2,1
SFE,463,3,RDSF,1,0.5
SFE,463,3,RDSF,2,1
SFE,463,5,RDSF,1,0.72
SFE,463,5,RDSF,2,2
SFE,463,5,HFLUX,1,%Q1%
SFE,464,2,RDSF,1,0.5
SFE,464,2,RDSF,2,1
SFE,464,3,RDSF,1,0.5
SFE,464,3,RDSF,2,1
SFE,464,4,RDSF,1,0.5
SFE,464,4,RDSF,2,1
SFE,464,5,RDSF,1,0.5
SFE,464,5,RDSF,2,1
SFE,465,2,RDSF,1,0.5
SFE,465,2,RDSF,2,1
SFE,465,3,RDSF,1,0.5
SFE,465,3,RDSF,2,1
SFE,465,4,RDSF,1,0.5
SFE,465,4,RDSF,2,1
SFE,465,5,RDSF,1,0.5
SFE,465,5,RDSF,2,1
SFE,466,3,RDSF,1,0.72
SFE,466,3,RDSF,2,2
SFE,466,3,HFLUX,1,%Q2%
SFE,466,5,RDSF,1,0.5
SFE,466,5,RDSF,2,1
SFE,467,3,RDSF,1,0.5
SFE,467,3,RDSF,2,1
SFE,467,5,RDSF,1,0.72
SFE,467,5,RDSF,2,2
SFE,467,5,HFLUX,1,%Q1%
SFE,468,3,RDSF,1,0.72
SFE,468,3,RDSF,2,2
SFE,468,3,HFLUX,1,%Q2%
SFE,468,5,RDSF,1,0.5
SFE,468,5,RDSF,2,1
SFE,469,5,RDSF,1,0.72
SFE,469,5,RDSF,2,2
SFE,469,5,HFLUX,1,%Q1%
SFE,470,2,RDSF,1,0.5
SFE,470,2,RDSF,2,1
SFE,471,2,RDSF,1,0.5
SFE,471,2,RDSF,2,1
SFE,471,3,RDSF,1,0.5
SFE,471,3,RDSF,2,1
SFE,472,2,RDSF,1,0.5
SFE,472,2,RDSF,2,1
SFE,472,5,RDSF,1,0.5
SFE,472,5,RDSF,2,1
SFE,473,2,RDSF,1,0.5
SFE,473,2,RDSF,2,1
SFE,474,3,RDSF,1,0.72
SFE,474,3,RDSF,2,2
SFE,474,3,HFLUX,1,%Q2%
SFE,475,5,RDSF,1,0.72
SFE,475,5,RDSF,2,2
SFE,475,5,HFLUX,1,%Q1%
SFE,477,3,RDSF,1,0.5
SFE,477,3,RDSF,2,1
SFE,478,5,RDSF,1,0.5
SFE,478,5,RDSF,2,1
SFE,480,3,RDSF,1,0.72
SFE,480,3,RDSF,2,2
SFE,480,3,HFLUX,1,%Q2%
SFE,481,4,RDSF,1,0.72
SFE,481,4,RDSF,2,2
SFE,481,4,HFLUX,1,%Q4%
SFE,481,5,RDSF,1,0.72
SFE,481,5,RDSF,2,2
SFE,481,5,HFLUX,1,%Q1%
SFE,482,4,RDSF,1,0.72
SFE,482,4,RDSF,2,2
SFE,482,4,HFLUX,1,%Q4%
SFE,483,4,RDSF,1,0.72
SFE,483,4,RDSF,2,2
SFE,483,4,HFLUX,1,%Q4%
SFE,484,2,RDSF,1,0.5
SFE,484,2,RDSF,2,1
SFE,484,4,RDSF,1,0.72
SFE,484,4,RDSF,2,2
SFE,484,4,HFLUX,1,%Q4%
SFE,485,2,RDSF,1,0.5
SFE,485,2,RDSF,2,1
SFE,485,4,RDSF,1,0.72
SFE,485,4,RDSF,2,2
SFE,485,4,HFLUX,1,%Q4%
SFE,486,2,RDSF,1,0.5
SFE,486,2,RDSF,2,1
SFE,486,4,RDSF,1,0.72
SFE,486,4,RDSF,2,2
SFE,486,4,HFLUX,1,%Q4%
SFE,487,2,RDSF,1,0.5
SFE,487,2,RDSF,2,1
SFE,487,4,RDSF,1,0.72
SFE,487,4,RDSF,2,2
SFE,487,4,HFLUX,1,%Q4%
SFE,488,2,RDSF,1,0.5
SFE,488,2,RDSF,2,1
SFE,488,4,RDSF,1,0.72
SFE,488,4,RDSF,2,2
SFE,488,4,HFLUX,1,%Q4%
SFE,489,2,RDSF,1,0.5
SFE,489,2,RDSF,2,1
SFE,489,4,RDSF,1,0.72
SFE,489,4,RDSF,2,2
SFE,489,4,HFLUX,1,%Q4%
SFE,490,2,RDSF,1,0.5
SFE,490,2,RDSF,2,1
SFE,490,4,RDSF,1,0.72
SFE,490,4,RDSF,2,2
SFE,490,4,HFLUX,1,%Q4%
SFE,491,2,RDSF,1,0.5
SFE,491,2,RDSF,2,1
SFE,491,4,RDSF,1,0.72
SFE,491,4,RDSF,2,2
SFE,491,4,HFLUX,1,%Q4%
SFE,492,2,RDSF,1,0.5
SFE,492,2,RDSF,2,1
SFE,492,4,RDSF,1,0.72
SFE,492,4,RDSF,2,2
SFE,492,4,HFLUX,1,%Q4%
SFE,493,2,RDSF,1,0.5
SFE,493,2,RDSF,2,1
SFE,493,4,RDSF,1,0.72
SFE,493,4,RDSF,2,2
SFE,493,4,HFLUX,1,%Q4%
SFE,494,4,RDSF,1,0.72
SFE,494,4,RDSF,2,2
SFE,494,4,HFLUX,1,%Q4%
SFE,495,4,RDSF,1,0.72
SFE,495,4,RDSF,2,2
SFE,495,4,HFLUX,1,%Q4%
SFE,496,3,RDSF,1,0.72
SFE,496,3,RDSF,2,2
SFE,496,3,HFLUX,1,%Q2%
SFE,496,4,RDSF,1,0.72
SFE,496,4,RDSF,2,2
SFE,496,4,HFLUX,1,%Q4%
SFE,497,2,RDSF,1,0.72
SFE,497,2,RDSF,2,2
SFE,497,2,HFLUX,1,%Q3%
SFE,497,5,RDSF,1,0.72
SFE,497,5,RDSF,2,2
SFE,497,5,HFLUX,1,%Q1%
SFE,498,2,RDSF,1,0.72
SFE,498,2,RDSF,2,2
SFE,498,2,HFLUX,1,%Q3%
SFE,499,2,RDSF,1,0.72
SFE,499,2,RDSF,2,2
SFE,499,2,HFLUX,1,%Q3%
SFE,500,2,RDSF,1,0.72
SFE,500,2,RDSF,2,2
SFE,500,2,HFLUX,1,%Q3%
SFE,500,4,RDSF,1,0.5
SFE,500,4,RDSF,2,1
SFE,501,2,RDSF,1,0.72
SFE,501,2,RDSF,2,2
SFE,501,2,HFLUX,1,%Q3%
SFE,501,4,RDSF,1,0.5
SFE,501,4,RDSF,2,1
SFE,502,2,RDSF,1,0.72
SFE,502,2,RDSF,2,2
SFE,502,2,HFLUX,1,%Q3%
SFE,502,4,RDSF,1,0.5
SFE,502,4,RDSF,2,1
SFE,503,2,RDSF,1,0.72
SFE,503,2,RDSF,2,2
SFE,503,2,HFLUX,1,%Q3%
SFE,503,4,RDSF,1,0.5
SFE,503,4,RDSF,2,1
SFE,504,2,RDSF,1,0.72
SFE,504,2,RDSF,2,2
SFE,504,2,HFLUX,1,%Q3%
SFE,504,4,RDSF,1,0.5
SFE,504,4,RDSF,2,1
SFE,505,2,RDSF,1,0.72
SFE,505,2,RDSF,2,2
SFE,505,2,HFLUX,1,%Q3%
SFE,505,4,RDSF,1,0.5
SFE,505,4,RDSF,2,1
SFE,506,2,RDSF,1,0.72
SFE,506,2,RDSF,2,2
SFE,506,2,HFLUX,1,%Q3%
SFE,506,4,RDSF,1,0.5
SFE,506,4,RDSF,2,1
SFE,507,2,RDSF,1,0.72
SFE,507,2,RDSF,2,2
SFE,507,2,HFLUX,1,%Q3%
SFE,507,4,RDSF,1,0.5
SFE,507,4,RDSF,2,1
SFE,508,2,RDSF,1,0.72
SFE,508,2,RDSF,2,2
SFE,508,2,HFLUX,1,%Q3%
SFE,508,4,RDSF,1,0.5
SFE,508,4,RDSF,2,1
SFE,509,2,RDSF,1,0.72
SFE,509,2,RDSF,2,2
SFE,509,2,HFLUX,1,%Q3%
SFE,509,4,RDSF,1,0.5
SFE,509,4,RDSF,2,1
SFE,510,2,RDSF,1,0.72
SFE,510,2,RDSF,2,2
SFE,510,2,HFLUX,1,%Q3%
SFE,511,2,RDSF,1,0.72
SFE,511,2,RDSF,2,2
SFE,511,2,HFLUX,1,%Q3%
SFE,512,2,RDSF,1,0.72
SFE,512,2,RDSF,2,2
SFE,512,2,HFLUX,1,%Q3%
SFE,512,3,RDSF,1,0.72
SFE,512,3,RDSF,2,2
SFE,512,3,HFLUX,1,%Q2%
SFE,513,5,RDSF,1,0.72
SFE,513,5,RDSF,2,2
SFE,513,5,HFLUX,1,%Q1%
SFE,515,3,RDSF,1,0.5
SFE,515,3,RDSF,2,1
SFE,516,5,RDSF,1,0.5
SFE,516,5,RDSF,2,1
SFE,518,3,RDSF,1,0.72
SFE,518,3,RDSF,2,2
SFE,518,3,HFLUX,1,%Q2%
SFE,519,5,RDSF,1,0.72
SFE,519,5,RDSF,2,2
SFE,519,5,HFLUX,1,%Q1%
SFE,520,4,RDSF,1,0.5
SFE,520,4,RDSF,2,1
SFE,522,1,RDSF,1,0.5
SFE,522,1,RDSF,2,1
SFE,522,2,RDSF,1,0.5
SFE,522,2,RDSF,2,1
SFE,522,6,RDSF,1,0.5
SFE,522,6,RDSF,2,1
SFE,523,1,RDSF,1,0.5
SFE,523,1,RDSF,2,1
SFE,523,2,RDSF,1,0.5
SFE,523,2,RDSF,2,1
SFE,523,6,RDSF,1,0.5
SFE,523,6,RDSF,2,1
SFE,524,1,RDSF,1,0.5
SFE,524,1,RDSF,2,1
SFE,524,2,RDSF,1,0.5
SFE,524,2,RDSF,2,1
SFE,524,6,RDSF,1,0.5
SFE,524,6,RDSF,2,1
SFE,525,1,RDSF,1,0.5
SFE,525,1,RDSF,2,1
SFE,525,2,RDSF,1,0.5
SFE,525,2,RDSF,2,1
SFE,525,6,RDSF,1,0.5
SFE,525,6,RDSF,2,1
SFE,526,1,RDSF,1,0.5
SFE,526,1,RDSF,2,1
SFE,526,2,RDSF,1,0.5
SFE,526,2,RDSF,2,1
SFE,526,6,RDSF,1,0.5
SFE,526,6,RDSF,2,1
SFE,527,1,RDSF,1,0.5
SFE,527,1,RDSF,2,1
SFE,527,2,RDSF,1,0.5
SFE,527,2,RDSF,2,1
SFE,527,6,RDSF,1,0.5
SFE,527,6,RDSF,2,1
SFE,528,1,RDSF,1,0.5
SFE,528,1,RDSF,2,1
SFE,528,2,RDSF,1,0.5
SFE,528,2,RDSF,2,1
SFE,528,6,RDSF,1,0.5
SFE,528,6,RDSF,2,1
SFE,529,1,RDSF,1,0.5
SFE,529,1,RDSF,2,1
SFE,529,2,RDSF,1,0.5
SFE,529,2,RDSF,2,1
SFE,529,6,RDSF,1,0.5
SFE,529,6,RDSF,2,1
SFE,530,1,RDSF,1,0.5
SFE,530,1,RDSF,2,1
SFE,530,2,RDSF,1,0.5
SFE,530,2,RDSF,2,1
SFE,530,6,RDSF,1,0.5
SFE,530,6,RDSF,2,1
SFE,531,1,RDSF,1,0.5
SFE,531,1,RDSF,2,1
SFE,531,2,RDSF,1,0.5
SFE,531,2,RDSF,2,1
SFE,531,6,RDSF,1,0.5
SFE,531,6,RDSF,2,1
SFE,533,4,RDSF,1,0.5
SFE,533,4,RDSF,2,1
SFE,534,3,RDSF,1,0.72
SFE,534,3,RDSF,2,2
SFE,534,3,HFLUX,1,%Q2%
SFE,535,3,RDSF,1,0.5
SFE,535,3,RDSF,2,1
SFE,535,5,RDSF,1,0.72
SFE,535,5,RDSF,2,2
SFE,535,5,HFLUX,1,%Q1%
SFE,536,1,RDSF,1,0.5
SFE,536,1,RDSF,2,1
SFE,536,5,RDSF,1,0.5
SFE,536,5,RDSF,2,1
SFE,536,6,RDSF,1,0.5
SFE,536,6,RDSF,2,1
SFE,537,1,RDSF,1,0.5
SFE,537,1,RDSF,2,1
SFE,537,6,RDSF,1,0.5
SFE,537,6,RDSF,2,1
SFE,538,1,RDSF,1,0.5
SFE,538,1,RDSF,2,1
SFE,538,6,RDSF,1,0.5
SFE,538,6,RDSF,2,1
SFE,539,1,RDSF,1,0.5
SFE,539,1,RDSF,2,1
SFE,539,6,RDSF,1,0.5
SFE,539,6,RDSF,2,1
SFE,540,1,RDSF,1,0.5
SFE,540,1,RDSF,2,1
SFE,540,6,RDSF,1,0.5
SFE,540,6,RDSF,2,1
SFE,541,1,RDSF,1,0.5
SFE,541,1,RDSF,2,1
SFE,541,6,RDSF,1,0.5
SFE,541,6,RDSF,2,1
SFE,542,1,RDSF,1,0.5
SFE,542,1,RDSF,2,1
SFE,542,6,RDSF,1,0.5
SFE,542,6,RDSF,2,1
SFE,543,1,RDSF,1,0.5
SFE,543,1,RDSF,2,1
SFE,543,6,RDSF,1,0.5
SFE,543,6,RDSF,2,1
SFE,544,1,RDSF,1,0.5
SFE,544,1,RDSF,2,1
SFE,544,6,RDSF,1,0.5
SFE,544,6,RDSF,2,1
SFE,545,1,RDSF,1,0.5
SFE,545,1,RDSF,2,1
SFE,545,6,RDSF,1,0.5
SFE,545,6,RDSF,2,1
SFE,546,1,RDSF,1,0.5
SFE,546,1,RDSF,2,1
SFE,546,6,RDSF,1,0.5
SFE,546,6,RDSF,2,1
SFE,547,1,RDSF,1,0.5
SFE,547,1,RDSF,2,1
SFE,547,3,RDSF,1,0.5
SFE,547,3,RDSF,2,1
SFE,547,6,RDSF,1,0.5
SFE,547,6,RDSF,2,1
SFE,548,3,RDSF,1,0.72
SFE,548,3,RDSF,2,2
SFE,548,3,HFLUX,1,%Q2%
SFE,548,5,RDSF,1,0.5
SFE,548,5,RDSF,2,1
SFE,549,3,RDSF,1,0.5
SFE,549,3,RDSF,2,1
SFE,549,5,RDSF,1,0.72
SFE,549,5,RDSF,2,2
SFE,549,5,HFLUX,1,%Q1%
SFE,550,1,RDSF,1,0.5
SFE,550,1,RDSF,2,1
SFE,550,5,RDSF,1,0.5
SFE,550,5,RDSF,2,1
SFE,550,6,RDSF,1,0.5
SFE,550,6,RDSF,2,1
SFE,551,1,RDSF,1,0.5
SFE,551,1,RDSF,2,1
SFE,551,6,RDSF,1,0.5
SFE,551,6,RDSF,2,1
SFE,553,1,RDSF,1,0.5
SFE,553,1,RDSF,2,1
SFE,553,6,RDSF,1,0.5
SFE,553,6,RDSF,2,1
SFE,554,1,RDSF,1,0.5
SFE,554,1,RDSF,2,1
SFE,554,6,RDSF,1,0.5
SFE,554,6,RDSF,2,1
SFE,555,1,RDSF,1,0.5
SFE,555,1,RDSF,2,1
SFE,555,6,RDSF,1,0.5
SFE,555,6,RDSF,2,1
SFE,556,1,RDSF,1,0.5
SFE,556,1,RDSF,2,1
SFE,556,6,RDSF,1,0.5
SFE,556,6,RDSF,2,1
SFE,557,1,RDSF,1,0.5
SFE,557,1,RDSF,2,1
SFE,557,6,RDSF,1,0.5
SFE,557,6,RDSF,2,1
SFE,558,1,RDSF,1,0.5
SFE,558,1,RDSF,2,1
SFE,558,6,RDSF,1,0.5
SFE,558,6,RDSF,2,1
SFE,560,1,RDSF,1,0.5
SFE,560,1,RDSF,2,1
SFE,560,6,RDSF,1,0.5
SFE,560,6,RDSF,2,1
SFE,561,1,RDSF,1,0.5
SFE,561,1,RDSF,2,1
SFE,561,3,RDSF,1,0.5
SFE,561,3,RDSF,2,1
SFE,561,6,RDSF,1,0.5
SFE,561,6,RDSF,2,1
SFE,562,3,RDSF,1,0.72
SFE,562,3,RDSF,2,2
SFE,562,3,HFLUX,1,%Q2%
SFE,562,5,RDSF,1,0.5
SFE,562,5,RDSF,2,1
SFE,563,3,RDSF,1,0.5
SFE,563,3,RDSF,2,1
SFE,563,5,RDSF,1,0.72
SFE,563,5,RDSF,2,2
SFE,563,5,HFLUX,1,%Q1%
SFE,564,1,RDSF,1,0.5
SFE,564,1,RDSF,2,1
SFE,564,5,RDSF,1,0.5
SFE,564,5,RDSF,2,1
SFE,564,6,RDSF,1,0.5
SFE,564,6,RDSF,2,1
SFE,565,1,RDSF,1,0.5
SFE,565,1,RDSF,2,1
SFE,565,6,RDSF,1,0.5
SFE,565,6,RDSF,2,1
SFE,566,1,RDSF,1,0.5
SFE,566,1,RDSF,2,1
SFE,566,6,RDSF,1,0.5
SFE,566,6,RDSF,2,1
SFE,567,1,RDSF,1,0.5
SFE,567,1,RDSF,2,1
SFE,567,6,RDSF,1,0.5
SFE,567,6,RDSF,2,1
SFE,568,1,RDSF,1,0.5
SFE,568,1,RDSF,2,1
SFE,568,6,RDSF,1,0.5
SFE,568,6,RDSF,2,1
SFE,569,1,RDSF,1,0.5
SFE,569,1,RDSF,2,1
SFE,569,6,RDSF,1,0.5
SFE,569,6,RDSF,2,1
SFE,570,1,RDSF,1,0.5
SFE,570,1,RDSF,2,1
SFE,570,6,RDSF,1,0.5
SFE,570,6,RDSF,2,1
SFE,571,1,RDSF,1,0.5
SFE,571,1,RDSF,2,1
SFE,571,6,RDSF,1,0.5
SFE,571,6,RDSF,2,1
SFE,572,1,RDSF,1,0.5
SFE,572,1,RDSF,2,1
SFE,572,6,RDSF,1,0.5
SFE,572,6,RDSF,2,1
SFE,573,1,RDSF,1,0.5
SFE,573,1,RDSF,2,1
SFE,573,6,RDSF,1,0.5
SFE,573,6,RDSF,2,1
SFE,574,1,RDSF,1,0.5
SFE,574,1,RDSF,2,1
SFE,574,6,RDSF,1,0.5
SFE,574,6,RDSF,2,1
SFE,575,1,RDSF,1,0.5
SFE,575,1,RDSF,2,1
SFE,575,3,RDSF,1,0.5
SFE,575,3,RDSF,2,1
SFE,575,6,RDSF,1,0.5
SFE,575,6,RDSF,2,1
SFE,576,3,RDSF,1,0.72
SFE,576,3,RDSF,2,2
SFE,576,3,HFLUX,1,%Q2%
SFE,576,5,RDSF,1,0.5
SFE,576,5,RDSF,2,1
SFE,577,3,RDSF,1,0.5
SFE,577,3,RDSF,2,1
SFE,577,5,RDSF,1,0.72
SFE,577,5,RDSF,2,2
SFE,577,5,HFLUX,1,%Q1%
SFE,578,1,RDSF,1,0.5
SFE,578,1,RDSF,2,1
SFE,578,5,RDSF,1,0.5
SFE,578,5,RDSF,2,1
SFE,578,6,RDSF,1,0.5
SFE,578,6,RDSF,2,1
SFE,579,1,RDSF,1,0.5
SFE,579,1,RDSF,2,1
SFE,579,6,RDSF,1,0.5
SFE,579,6,RDSF,2,1
SFE,580,1,RDSF,1,0.5
SFE,580,1,RDSF,2,1
SFE,580,6,RDSF,1,0.5
SFE,580,6,RDSF,2,1
SFE,581,1,RDSF,1,0.5
SFE,581,1,RDSF,2,1
SFE,581,6,RDSF,1,0.5
SFE,581,6,RDSF,2,1
SFE,582,1,RDSF,1,0.5
SFE,582,1,RDSF,2,1
SFE,582,6,RDSF,1,0.5
SFE,582,6,RDSF,2,1
SFE,583,1,RDSF,1,0.5
SFE,583,1,RDSF,2,1
SFE,583,6,RDSF,1,0.5
SFE,583,6,RDSF,2,1
SFE,584,1,RDSF,1,0.5
SFE,584,1,RDSF,2,1
SFE,584,6,RDSF,1,0.5
SFE,584,6,RDSF,2,1
SFE,585,1,RDSF,1,0.5
SFE,585,1,RDSF,2,1
SFE,585,6,RDSF,1,0.5
SFE,585,6,RDSF,2,1
SFE,586,1,RDSF,1,0.5
SFE,586,1,RDSF,2,1
SFE,586,6,RDSF,1,0.5
SFE,586,6,RDSF,2,1
SFE,587,1,RDSF,1,0.5
SFE,587,1,RDSF,2,1
SFE,587,6,RDSF,1,0.5
SFE,587,6,RDSF,2,1
SFE,588,1,RDSF,1,0.5
SFE,588,1,RDSF,2,1
SFE,588,6,RDSF,1,0.5
SFE,588,6,RDSF,2,1
SFE,589,1,RDSF,1,0.5
SFE,589,1,RDSF,2,1
SFE,589,3,RDSF,1,0.5
SFE,589,3,RDSF,2,1
SFE,589,6,RDSF,1,0.5
SFE,589,6,RDSF,2,1
SFE,590,3,RDSF,1,0.72
SFE,590,3,RDSF,2,2
SFE,590,3,HFLUX,1,%Q2%
SFE,590,5,RDSF,1,0.5
SFE,590,5,RDSF,2,1
SFE,591,3,RDSF,1,0.5
SFE,591,3,RDSF,2,1
SFE,591,5,RDSF,1,0.72
SFE,591,5,RDSF,2,2
SFE,591,5,HFLUX,1,%Q1%
SFE,592,1,RDSF,1,0.5
SFE,592,1,RDSF,2,1
SFE,592,5,RDSF,1,0.5
SFE,592,5,RDSF,2,1
SFE,592,6,RDSF,1,0.5
SFE,592,6,RDSF,2,1
SFE,593,1,RDSF,1,0.5
SFE,593,1,RDSF,2,1
SFE,593,6,RDSF,1,0.5
SFE,593,6,RDSF,2,1
SFE,594,1,RDSF,1,0.5
SFE,594,1,RDSF,2,1
SFE,594,6,RDSF,1,0.5
SFE,594,6,RDSF,2,1
SFE,595,1,RDSF,1,0.5
SFE,595,1,RDSF,2,1
SFE,595,6,RDSF,1,0.5
SFE,595,6,RDSF,2,1
SFE,596,1,RDSF,1,0.5
SFE,596,1,RDSF,2,1
SFE,596,6,RDSF,1,0.5
SFE,596,6,RDSF,2,1
SFE,597,1,RDSF,1,0.5
SFE,597,1,RDSF,2,1
SFE,597,6,RDSF,1,0.5
SFE,597,6,RDSF,2,1
SFE,598,1,RDSF,1,0.5
SFE,598,1,RDSF,2,1
SFE,598,6,RDSF,1,0.5
SFE,598,6,RDSF,2,1
SFE,599,1,RDSF,1,0.5
SFE,599,1,RDSF,2,1
SFE,599,6,RDSF,1,0.5
SFE,599,6,RDSF,2,1
SFE,600,1,RDSF,1,0.5
SFE,600,1,RDSF,2,1
SFE,600,6,RDSF,1,0.5
SFE,600,6,RDSF,2,1
SFE,601,1,RDSF,1,0.5
SFE,601,1,RDSF,2,1
SFE,601,6,RDSF,1,0.5
SFE,601,6,RDSF,2,1
SFE,602,1,RDSF,1,0.5
SFE,602,1,RDSF,2,1
SFE,602,6,RDSF,1,0.5
SFE,602,6,RDSF,2,1
SFE,603,1,RDSF,1,0.5
SFE,603,1,RDSF,2,1
SFE,603,3,RDSF,1,0.5
SFE,603,3,RDSF,2,1
SFE,603,6,RDSF,1,0.5
SFE,603,6,RDSF,2,1
SFE,604,3,RDSF,1,0.72
SFE,604,3,RDSF,2,2
SFE,604,3,HFLUX,1,%Q2%
SFE,604,5,RDSF,1,0.5
SFE,604,5,RDSF,2,1
SFE,605,3,RDSF,1,0.5
SFE,605,3,RDSF,2,1
SFE,605,5,RDSF,1,0.72
SFE,605,5,RDSF,2,2
SFE,605,5,HFLUX,1,%Q1%
SFE,606,1,RDSF,1,0.5
SFE,606,1,RDSF,2,1
SFE,606,5,RDSF,1,0.5
SFE,606,5,RDSF,2,1
SFE,606,6,RDSF,1,0.5
SFE,606,6,RDSF,2,1
SFE,607,1,RDSF,1,0.5
SFE,607,1,RDSF,2,1
SFE,607,6,RDSF,1,0.5
SFE,607,6,RDSF,2,1
SFE,608,1,RDSF,1,0.5
SFE,608,1,RDSF,2,1
SFE,608,6,RDSF,1,0.5
SFE,608,6,RDSF,2,1
SFE,609,1,RDSF,1,0.5
SFE,609,1,RDSF,2,1
SFE,609,6,RDSF,1,0.5
SFE,609,6,RDSF,2,1
SFE,610,1,RDSF,1,0.5
SFE,610,1,RDSF,2,1
SFE,610,6,RDSF,1,0.5
SFE,610,6,RDSF,2,1
SFE,611,1,RDSF,1,0.5
SFE,611,1,RDSF,2,1
SFE,611,6,RDSF,1,0.5
SFE,611,6,RDSF,2,1
SFE,612,1,RDSF,1,0.5
SFE,612,1,RDSF,2,1
SFE,612,6,RDSF,1,0.5
SFE,612,6,RDSF,2,1
SFE,613,1,RDSF,1,0.5
SFE,613,1,RDSF,2,1
SFE,613,6,RDSF,1,0.5
SFE,613,6,RDSF,2,1
SFE,614,1,RDSF,1,0.5
SFE,614,1,RDSF,2,1
SFE,614,6,RDSF,1,0.5
SFE,614,6,RDSF,2,1
SFE,615,1,RDSF,1,0.5
SFE,615,1,RDSF,2,1
SFE,615,6,RDSF,1,0.5
SFE,615,6,RDSF,2,1
SFE,616,1,RDSF,1,0.5
SFE,616,1,RDSF,2,1
SFE,616,6,RDSF,1,0.5
SFE,616,6,RDSF,2,1
SFE,617,1,RDSF,1,0.5
SFE,617,1,RDSF,2,1
SFE,617,3,RDSF,1,0.5
SFE,617,3,RDSF,2,1
SFE,617,6,RDSF,1,0.5
SFE,617,6,RDSF,2,1
SFE,618,3,RDSF,1,0.72
SFE,618,3,RDSF,2,2
SFE,618,3,HFLUX,1,%Q2%
SFE,618,5,RDSF,1,0.5
SFE,618,5,RDSF,2,1
SFE,619,3,RDSF,1,0.5
SFE,619,3,RDSF,2,1
SFE,619,5,RDSF,1,0.72
SFE,619,5,RDSF,2,2
SFE,619,5,HFLUX,1,%Q1%
SFE,620,1,RDSF,1,0.5
SFE,620,1,RDSF,2,1
SFE,620,5,RDSF,1,0.5
SFE,620,5,RDSF,2,1
SFE,620,6,RDSF,1,0.5
SFE,620,6,RDSF,2,1
SFE,621,1,RDSF,1,0.5
SFE,621,1,RDSF,2,1
SFE,621,6,RDSF,1,0.5
SFE,621,6,RDSF,2,1
SFE,622,1,RDSF,1,0.5
SFE,622,1,RDSF,2,1
SFE,622,6,RDSF,1,0.5
SFE,622,6,RDSF,2,1
SFE,623,1,RDSF,1,0.5
SFE,623,1,RDSF,2,1
SFE,623,6,RDSF,1,0.5
SFE,623,6,RDSF,2,1
SFE,624,1,RDSF,1,0.5
SFE,624,1,RDSF,2,1
SFE,624,6,RDSF,1,0.5
SFE,624,6,RDSF,2,1
SFE,625,1,RDSF,1,0.5
SFE,625,1,RDSF,2,1
SFE,625,6,RDSF,1,0.5
SFE,625,6,RDSF,2,1
SFE,626,1,RDSF,1,0.5
SFE,626,1,RDSF,2,1
SFE,626,6,RDSF,1,0.5
SFE,626,6,RDSF,2,1
SFE,627,1,RDSF,1,0.5
SFE,627,1,RDSF,2,1
SFE,627,6,RDSF,1,0.5
SFE,627,6,RDSF,2,1
SFE,628,1,RDSF,1,0.5
SFE,628,1,RDSF,2,1
SFE,628,6,RDSF,1,0.5
SFE,628,6,RDSF,2,1
SFE,629,1,RDSF,1,0.5
SFE,629,1,RDSF,2,1
SFE,629,6,RDSF,1,0.5
SFE,629,6,RDSF,2,1
SFE,630,1,RDSF,1,0.5
SFE,630,1,RDSF,2,1
SFE,630,6,RDSF,1,0.5
SFE,630,6,RDSF,2,1
SFE,631,1,RDSF,1,0.5
SFE,631,1,RDSF,2,1
SFE,631,3,RDSF,1,0.5
SFE,631,3,RDSF,2,1
SFE,631,6,RDSF,1,0.5
SFE,631,6,RDSF,2,1
SFE,632,3,RDSF,1,0.72
SFE,632,3,RDSF,2,2
SFE,632,3,HFLUX,1,%Q2%
SFE,632,5,RDSF,1,0.5
SFE,632,5,RDSF,2,1
SFE,633,3,RDSF,1,0.5
SFE,633,3,RDSF,2,1
SFE,633,5,RDSF,1,0.72
SFE,633,5,RDSF,2,2
SFE,633,5,HFLUX,1,%Q1%
SFE,634,1,RDSF,1,0.5
SFE,634,1,RDSF,2,1
SFE,634,5,RDSF,1,0.5
SFE,634,5,RDSF,2,1
SFE,634,6,RDSF,1,0.5
SFE,634,6,RDSF,2,1
SFE,635,1,RDSF,1,0.5
SFE,635,1,RDSF,2,1
SFE,635,6,RDSF,1,0.5
SFE,635,6,RDSF,2,1
SFE,636,1,RDSF,1,0.5
SFE,636,1,RDSF,2,1
SFE,636,6,RDSF,1,0.5
SFE,636,6,RDSF,2,1
SFE,637,1,RDSF,1,0.5
SFE,637,1,RDSF,2,1
SFE,637,6,RDSF,1,0.5
SFE,637,6,RDSF,2,1
SFE,638,1,RDSF,1,0.5
SFE,638,1,RDSF,2,1
SFE,638,6,RDSF,1,0.5
SFE,638,6,RDSF,2,1
SFE,639,1,RDSF,1,0.5
SFE,639,1,RDSF,2,1
SFE,639,6,RDSF,1,0.5
SFE,639,6,RDSF,2,1
SFE,640,1,RDSF,1,0.5
SFE,640,1,RDSF,2,1
SFE,640,6,RDSF,1,0.5
SFE,640,6,RDSF,2,1
SFE,641,1,RDSF,1,0.5
SFE,641,1,RDSF,2,1
SFE,641,6,RDSF,1,0.5
SFE,641,6,RDSF,2,1
SFE,642,1,RDSF,1,0.5
SFE,642,1,RDSF,2,1
SFE,642,6,RDSF,1,0.5
SFE,642,6,RDSF,2,1
SFE,643,1,RDSF,1,0.5
SFE,643,1,RDSF,2,1
SFE,643,6,RDSF,1,0.5
SFE,643,6,RDSF,2,1
SFE,644,1,RDSF,1,0.5
SFE,644,1,RDSF,2,1
SFE,644,6,RDSF,1,0.5
SFE,644,6,RDSF,2,1
SFE,645,1,RDSF,1,0.5
SFE,645,1,RDSF,2,1
SFE,645,3,RDSF,1,0.5
SFE,645,3,RDSF,2,1
SFE,645,6,RDSF,1,0.5
SFE,645,6,RDSF,2,1
SFE,646,3,RDSF,1,0.72
SFE,646,3,RDSF,2,2
SFE,646,3,HFLUX,1,%Q2%
SFE,646,5,RDSF,1,0.5
SFE,646,5,RDSF,2,1
SFE,647,3,RDSF,1,0.5
SFE,647,3,RDSF,2,1
SFE,647,5,RDSF,1,0.72
SFE,647,5,RDSF,2,2
SFE,647,5,HFLUX,1,%Q1%
SFE,648,1,RDSF,1,0.5
SFE,648,1,RDSF,2,1
SFE,648,5,RDSF,1,0.5
SFE,648,5,RDSF,2,1
SFE,648,6,RDSF,1,0.5
SFE,648,6,RDSF,2,1
SFE,649,1,RDSF,1,0.5
SFE,649,1,RDSF,2,1
SFE,649,6,RDSF,1,0.5
SFE,649,6,RDSF,2,1
SFE,651,1,RDSF,1,0.5
SFE,651,1,RDSF,2,1
SFE,651,6,RDSF,1,0.5
SFE,651,6,RDSF,2,1
SFE,652,1,RDSF,1,0.5
SFE,652,1,RDSF,2,1
SFE,652,6,RDSF,1,0.5
SFE,652,6,RDSF,2,1
SFE,653,1,RDSF,1,0.5
SFE,653,1,RDSF,2,1
SFE,653,6,RDSF,1,0.5
SFE,653,6,RDSF,2,1
SFE,654,1,RDSF,1,0.5
SFE,654,1,RDSF,2,1
SFE,654,6,RDSF,1,0.5
SFE,654,6,RDSF,2,1
SFE,655,1,RDSF,1,0.5
SFE,655,1,RDSF,2,1
SFE,655,6,RDSF,1,0.5
SFE,655,6,RDSF,2,1
SFE,656,1,RDSF,1,0.5
SFE,656,1,RDSF,2,1
SFE,656,6,RDSF,1,0.5
SFE,656,6,RDSF,2,1
SFE,658,1,RDSF,1,0.5
SFE,658,1,RDSF,2,1
SFE,658,6,RDSF,1,0.5
SFE,658,6,RDSF,2,1
SFE,659,1,RDSF,1,0.5
SFE,659,1,RDSF,2,1
SFE,659,3,RDSF,1,0.5
SFE,659,3,RDSF,2,1
SFE,659,6,RDSF,1,0.5
SFE,659,6,RDSF,2,1
SFE,660,3,RDSF,1,0.72
SFE,660,3,RDSF,2,2
SFE,660,3,HFLUX,1,%Q2%
SFE,660,5,RDSF,1,0.5
SFE,660,5,RDSF,2,1
SFE,661,3,RDSF,1,0.5
SFE,661,3,RDSF,2,1
SFE,661,5,RDSF,1,0.72
SFE,661,5,RDSF,2,2
SFE,661,5,HFLUX,1,%Q1%
SFE,662,1,RDSF,1,0.5
SFE,662,1,RDSF,2,1
SFE,662,5,RDSF,1,0.5
SFE,662,5,RDSF,2,1
SFE,662,6,RDSF,1,0.5
SFE,662,6,RDSF,2,1
SFE,663,1,RDSF,1,0.5
SFE,663,1,RDSF,2,1
SFE,663,6,RDSF,1,0.5
SFE,663,6,RDSF,2,1
SFE,664,1,RDSF,1,0.5
SFE,664,1,RDSF,2,1
SFE,664,6,RDSF,1,0.5
SFE,664,6,RDSF,2,1
SFE,665,1,RDSF,1,0.5
SFE,665,1,RDSF,2,1
SFE,665,6,RDSF,1,0.5
SFE,665,6,RDSF,2,1
SFE,666,1,RDSF,1,0.5
SFE,666,1,RDSF,2,1
SFE,666,6,RDSF,1,0.5
SFE,666,6,RDSF,2,1
SFE,667,1,RDSF,1,0.5
SFE,667,1,RDSF,2,1
SFE,667,6,RDSF,1,0.5
SFE,667,6,RDSF,2,1
SFE,668,1,RDSF,1,0.5
SFE,668,1,RDSF,2,1
SFE,668,6,RDSF,1,0.5
SFE,668,6,RDSF,2,1
SFE,669,1,RDSF,1,0.5
SFE,669,1,RDSF,2,1
SFE,669,6,RDSF,1,0.5
SFE,669,6,RDSF,2,1
SFE,670,1,RDSF,1,0.5
SFE,670,1,RDSF,2,1
SFE,670,6,RDSF,1,0.5
SFE,670,6,RDSF,2,1
SFE,671,1,RDSF,1,0.5
SFE,671,1,RDSF,2,1
SFE,671,6,RDSF,1,0.5
SFE,671,6,RDSF,2,1
SFE,672,1,RDSF,1,0.5
SFE,672,1,RDSF,2,1
SFE,672,6,RDSF,1,0.5
SFE,672,6,RDSF,2,1
SFE,673,1,RDSF,1,0.5
SFE,673,1,RDSF,2,1
SFE,673,3,RDSF,1,0.5
SFE,673,3,RDSF,2,1
SFE,673,6,RDSF,1,0.5
SFE,673,6,RDSF,2,1
SFE,674,3,RDSF,1,0.72
SFE,674,3,RDSF,2,2
SFE,674,3,HFLUX,1,%Q2%
SFE,674,5,RDSF,1,0.5
SFE,674,5,RDSF,2,1
SFE,675,5,RDSF,1,0.72
SFE,675,5,RDSF,2,2
SFE,675,5,HFLUX,1,%Q1%
SFE,676,2,RDSF,1,0.5
SFE,676,2,RDSF,2,1
SFE,678,1,RDSF,1,0.5
SFE,678,1,RDSF,2,1
SFE,678,4,RDSF,1,0.5
SFE,678,4,RDSF,2,1
SFE,678,6,RDSF,1,0.5
SFE,678,6,RDSF,2,1
SFE,679,1,RDSF,1,0.5
SFE,679,1,RDSF,2,1
SFE,679,4,RDSF,1,0.5
SFE,679,4,RDSF,2,1
SFE,679,6,RDSF,1,0.5
SFE,679,6,RDSF,2,1
SFE,680,1,RDSF,1,0.5
SFE,680,1,RDSF,2,1
SFE,680,4,RDSF,1,0.5
SFE,680,4,RDSF,2,1
SFE,680,6,RDSF,1,0.5
SFE,680,6,RDSF,2,1
SFE,681,1,RDSF,1,0.5
SFE,681,1,RDSF,2,1
SFE,681,4,RDSF,1,0.5
SFE,681,4,RDSF,2,1
SFE,681,6,RDSF,1,0.5
SFE,681,6,RDSF,2,1
SFE,682,1,RDSF,1,0.5
SFE,682,1,RDSF,2,1
SFE,682,4,RDSF,1,0.5
SFE,682,4,RDSF,2,1
SFE,682,6,RDSF,1,0.5
SFE,682,6,RDSF,2,1
SFE,683,1,RDSF,1,0.5
SFE,683,1,RDSF,2,1
SFE,683,4,RDSF,1,0.5
SFE,683,4,RDSF,2,1
SFE,683,6,RDSF,1,0.5
SFE,683,6,RDSF,2,1
SFE,684,1,RDSF,1,0.5
SFE,684,1,RDSF,2,1
SFE,684,4,RDSF,1,0.5
SFE,684,4,RDSF,2,1
SFE,684,6,RDSF,1,0.5
SFE,684,6,RDSF,2,1
SFE,685,1,RDSF,1,0.5
SFE,685,1,RDSF,2,1
SFE,685,4,RDSF,1,0.5
SFE,685,4,RDSF,2,1
SFE,685,6,RDSF,1,0.5
SFE,685,6,RDSF,2,1
SFE,686,1,RDSF,1,0.5
SFE,686,1,RDSF,2,1
SFE,686,4,RDSF,1,0.5
SFE,686,4,RDSF,2,1
SFE,686,6,RDSF,1,0.5
SFE,686,6,RDSF,2,1
SFE,687,1,RDSF,1,0.5
SFE,687,1,RDSF,2,1
SFE,687,4,RDSF,1,0.5
SFE,687,4,RDSF,2,1
SFE,687,6,RDSF,1,0.5
SFE,687,6,RDSF,2,1
SFE,689,2,RDSF,1,0.5
SFE,689,2,RDSF,2,1
SFE,690,3,RDSF,1,0.72
SFE,690,3,RDSF,2,2
SFE,690,3,HFLUX,1,%Q2%
SFE,691,5,RDSF,1,0.72
SFE,691,5,RDSF,2,2
SFE,691,5,HFLUX,1,%Q1%
SFE,693,3,RDSF,1,0.5
SFE,693,3,RDSF,2,1
SFE,694,5,RDSF,1,0.5
SFE,694,5,RDSF,2,1
SFE,696,3,RDSF,1,0.72
SFE,696,3,RDSF,2,2
SFE,696,3,HFLUX,1,%Q2%
SFE,697,4,RDSF,1,0.72
SFE,697,4,RDSF,2,2
SFE,697,4,HFLUX,1,%Q4%
SFE,697,5,RDSF,1,0.72
SFE,697,5,RDSF,2,2
SFE,697,5,HFLUX,1,%Q1%
SFE,698,4,RDSF,1,0.72
SFE,698,4,RDSF,2,2
SFE,698,4,HFLUX,1,%Q4%
SFE,699,4,RDSF,1,0.72
SFE,699,4,RDSF,2,2
SFE,699,4,HFLUX,1,%Q4%
SFE,700,2,RDSF,1,0.5
SFE,700,2,RDSF,2,1
SFE,700,4,RDSF,1,0.72
SFE,700,4,RDSF,2,2
SFE,700,4,HFLUX,1,%Q4%
SFE,701,2,RDSF,1,0.5
SFE,701,2,RDSF,2,1
SFE,701,4,RDSF,1,0.72
SFE,701,4,RDSF,2,2
SFE,701,4,HFLUX,1,%Q4%
SFE,702,2,RDSF,1,0.5
SFE,702,2,RDSF,2,1
SFE,702,4,RDSF,1,0.72
SFE,702,4,RDSF,2,2
SFE,702,4,HFLUX,1,%Q4%
SFE,703,2,RDSF,1,0.5
SFE,703,2,RDSF,2,1
SFE,703,4,RDSF,1,0.72
SFE,703,4,RDSF,2,2
SFE,703,4,HFLUX,1,%Q4%
SFE,704,2,RDSF,1,0.5
SFE,704,2,RDSF,2,1
SFE,704,4,RDSF,1,0.72
SFE,704,4,RDSF,2,2
SFE,704,4,HFLUX,1,%Q4%
SFE,705,2,RDSF,1,0.5
SFE,705,2,RDSF,2,1
SFE,705,4,RDSF,1,0.72
SFE,705,4,RDSF,2,2
SFE,705,4,HFLUX,1,%Q4%
SFE,706,2,RDSF,1,0.5
SFE,706,2,RDSF,2,1
SFE,706,4,RDSF,1,0.72
SFE,706,4,RDSF,2,2
SFE,706,4,HFLUX,1,%Q4%
SFE,707,2,RDSF,1,0.5
SFE,707,2,RDSF,2,1
SFE,707,4,RDSF,1,0.72
SFE,707,4,RDSF,2,2
SFE,707,4,HFLUX,1,%Q4%
SFE,708,2,RDSF,1,0.5
SFE,708,2,RDSF,2,1
SFE,708,4,RDSF,1,0.72
SFE,708,4,RDSF,2,2
SFE,708,4,HFLUX,1,%Q4%
SFE,709,2,RDSF,1,0.5
SFE,709,2,RDSF,2,1
SFE,709,4,RDSF,1,0.72
SFE,709,4,RDSF,2,2
SFE,709,4,HFLUX,1,%Q4%
SFE,710,4,RDSF,1,0.72
SFE,710,4,RDSF,2,2
SFE,710,4,HFLUX,1,%Q4%
SFE,711,4,RDSF,1,0.72
SFE,711,4,RDSF,2,2
SFE,711,4,HFLUX,1,%Q4%
SFE,712,3,RDSF,1,0.72
SFE,712,3,RDSF,2,2
SFE,712,3,HFLUX,1,%Q2%
SFE,712,4,RDSF,1,0.72
SFE,712,4,RDSF,2,2
SFE,712,4,HFLUX,1,%Q4%
SFE,713,2,RDSF,1,0.72
SFE,713,2,RDSF,2,2
SFE,713,2,HFLUX,1,%Q3%
SFE,713,5,RDSF,1,0.72
SFE,713,5,RDSF,2,2
SFE,713,5,HFLUX,1,%Q1%
SFE,714,2,RDSF,1,0.72
SFE,714,2,RDSF,2,2
SFE,714,2,HFLUX,1,%Q3%
SFE,715,2,RDSF,1,0.72
SFE,715,2,RDSF,2,2
SFE,715,2,HFLUX,1,%Q3%
SFE,716,2,RDSF,1,0.72
SFE,716,2,RDSF,2,2
SFE,716,2,HFLUX,1,%Q3%
SFE,716,4,RDSF,1,0.5
SFE,716,4,RDSF,2,1
SFE,717,2,RDSF,1,0.72
SFE,717,2,RDSF,2,2
SFE,717,2,HFLUX,1,%Q3%
SFE,717,4,RDSF,1,0.5
SFE,717,4,RDSF,2,1
SFE,718,2,RDSF,1,0.72
SFE,718,2,RDSF,2,2
SFE,718,2,HFLUX,1,%Q3%
SFE,718,4,RDSF,1,0.5
SFE,718,4,RDSF,2,1
SFE,719,2,RDSF,1,0.72
SFE,719,2,RDSF,2,2
SFE,719,2,HFLUX,1,%Q3%
SFE,719,4,RDSF,1,0.5
SFE,719,4,RDSF,2,1
SFE,720,2,RDSF,1,0.72
SFE,720,2,RDSF,2,2
SFE,720,2,HFLUX,1,%Q3%
SFE,720,4,RDSF,1,0.5
SFE,720,4,RDSF,2,1
SFE,721,2,RDSF,1,0.72
SFE,721,2,RDSF,2,2
SFE,721,2,HFLUX,1,%Q3%
SFE,721,4,RDSF,1,0.5
SFE,721,4,RDSF,2,1
SFE,722,2,RDSF,1,0.72
SFE,722,2,RDSF,2,2
SFE,722,2,HFLUX,1,%Q3%
SFE,722,4,RDSF,1,0.5
SFE,722,4,RDSF,2,1
SFE,723,2,RDSF,1,0.72
SFE,723,2,RDSF,2,2
SFE,723,2,HFLUX,1,%Q3%
SFE,723,4,RDSF,1,0.5
SFE,723,4,RDSF,2,1
SFE,724,2,RDSF,1,0.72
SFE,724,2,RDSF,2,2
SFE,724,2,HFLUX,1,%Q3%
SFE,724,4,RDSF,1,0.5
SFE,724,4,RDSF,2,1
SFE,725,2,RDSF,1,0.72
SFE,725,2,RDSF,2,2
SFE,725,2,HFLUX,1,%Q3%
SFE,725,4,RDSF,1,0.5
SFE,725,4,RDSF,2,1
SFE,726,2,RDSF,1,0.72
SFE,726,2,RDSF,2,2
SFE,726,2,HFLUX,1,%Q3%
SFE,727,2,RDSF,1,0.72
SFE,727,2,RDSF,2,2
SFE,727,2,HFLUX,1,%Q3%
SFE,728,2,RDSF,1,0.72
SFE,728,2,RDSF,2,2
SFE,728,2,HFLUX,1,%Q3%
SFE,728,3,RDSF,1,0.72
SFE,728,3,RDSF,2,2
SFE,728,3,HFLUX,1,%Q2%
SFE,729,5,RDSF,1,0.72
SFE,729,5,RDSF,2,2
SFE,729,5,HFLUX,1,%Q1%
SFE,731,3,RDSF,1,0.5
SFE,731,3,RDSF,2,1
SFE,732,5,RDSF,1,0.5
SFE,732,5,RDSF,2,1
SFE,734,3,RDSF,1,0.72
SFE,734,3,RDSF,2,2
SFE,734,3,HFLUX,1,%Q2%
SFE,735,5,RDSF,1,0.72
SFE,735,5,RDSF,2,2
SFE,735,5,HFLUX,1,%Q1%
SFE,736,4,RDSF,1,0.5
SFE,736,4,RDSF,2,1
SFE,737,3,RDSF,1,0.5
SFE,737,3,RDSF,2,1
SFE,737,4,RDSF,1,0.5
SFE,737,4,RDSF,2,1
SFE,738,4,RDSF,1,0.5
SFE,738,4,RDSF,2,1
SFE,738,5,RDSF,1,0.5
SFE,738,5,RDSF,2,1
SFE,739,4,RDSF,1,0.5
SFE,739,4,RDSF,2,1
SFE,740,3,RDSF,1,0.72
SFE,740,3,RDSF,2,2
SFE,740,3,HFLUX,1,%Q2%
SFE,741,3,RDSF,1,0.5
SFE,741,3,RDSF,2,1
SFE,741,5,RDSF,1,0.72
SFE,741,5,RDSF,2,2
SFE,741,5,HFLUX,1,%Q1%
SFE,742,3,RDSF,1,0.72
SFE,742,3,RDSF,2,2
SFE,742,3,HFLUX,1,%Q2%
SFE,742,5,RDSF,1,0.5
SFE,742,5,RDSF,2,1
SFE,743,3,RDSF,1,0.5
SFE,743,3,RDSF,2,1
SFE,743,5,RDSF,1,0.72
SFE,743,5,RDSF,2,2
SFE,743,5,HFLUX,1,%Q1%
SFE,744,2,RDSF,1,0.5
SFE,744,2,RDSF,2,1
SFE,744,3,RDSF,1,0.5
SFE,744,3,RDSF,2,1
SFE,744,4,RDSF,1,0.5
SFE,744,4,RDSF,2,1
SFE,744,5,RDSF,1,0.5
SFE,744,5,RDSF,2,1
SFE,745,2,RDSF,1,0.5
SFE,745,2,RDSF,2,1
SFE,745,3,RDSF,1,0.5
SFE,745,3,RDSF,2,1
SFE,745,4,RDSF,1,0.5
SFE,745,4,RDSF,2,1
SFE,745,5,RDSF,1,0.5
SFE,745,5,RDSF,2,1
SFE,746,3,RDSF,1,0.72
SFE,746,3,RDSF,2,2
SFE,746,3,HFLUX,1,%Q2%
SFE,746,5,RDSF,1,0.5
SFE,746,5,RDSF,2,1
SFE,747,3,RDSF,1,0.5
SFE,747,3,RDSF,2,1
SFE,747,5,RDSF,1,0.72
SFE,747,5,RDSF,2,2
SFE,747,5,HFLUX,1,%Q1%
SFE,748,3,RDSF,1,0.72
SFE,748,3,RDSF,2,2
SFE,748,3,HFLUX,1,%Q2%
SFE,748,5,RDSF,1,0.5
SFE,748,5,RDSF,2,1
SFE,749,3,RDSF,1,0.5
SFE,749,3,RDSF,2,1
SFE,749,5,RDSF,1,0.72
SFE,749,5,RDSF,2,2
SFE,749,5,HFLUX,1,%Q1%
SFE,750,3,RDSF,1,0.72
SFE,750,3,RDSF,2,2
SFE,750,3,HFLUX,1,%Q2%
SFE,750,5,RDSF,1,0.5
SFE,750,5,RDSF,2,1
SFE,751,3,RDSF,1,0.5
SFE,751,3,RDSF,2,1
SFE,751,5,RDSF,1,0.72
SFE,751,5,RDSF,2,2
SFE,751,5,HFLUX,1,%Q1%
SFE,752,3,RDSF,1,0.72
SFE,752,3,RDSF,2,2
SFE,752,3,HFLUX,1,%Q2%
SFE,752,5,RDSF,1,0.5
SFE,752,5,RDSF,2,1
SFE,753,3,RDSF,1,0.5
SFE,753,3,RDSF,2,1
SFE,753,5,RDSF,1,0.72
SFE,753,5,RDSF,2,2
SFE,753,5,HFLUX,1,%Q1%
SFE,754,3,RDSF,1,0.72
SFE,754,3,RDSF,2,2
SFE,754,3,HFLUX,1,%Q2%
SFE,754,5,RDSF,1,0.5
SFE,754,5,RDSF,2,1
SFE,755,3,RDSF,1,0.5
SFE,755,3,RDSF,2,1
SFE,755,5,RDSF,1,0.72
SFE,755,5,RDSF,2,2
SFE,755,5,HFLUX,1,%Q1%
SFE,756,3,RDSF,1,0.72
SFE,756,3,RDSF,2,2
SFE,756,3,HFLUX,1,%Q2%
SFE,756,5,RDSF,1,0.5
SFE,756,5,RDSF,2,1
SFE,757,3,RDSF,1,0.5
SFE,757,3,RDSF,2,1
SFE,757,5,RDSF,1,0.72
SFE,757,5,RDSF,2,2
SFE,757,5,HFLUX,1,%Q1%
SFE,758,3,RDSF,1,0.72
SFE,758,3,RDSF,2,2
SFE,758,3,HFLUX,1,%Q2%
SFE,758,5,RDSF,1,0.5
SFE,758,5,RDSF,2,1
SFE,759,3,RDSF,1,0.5
SFE,759,3,RDSF,2,1
SFE,759,5,RDSF,1,0.72
SFE,759,5,RDSF,2,2
SFE,759,5,HFLUX,1,%Q1%
SFE,760,2,RDSF,1,0.5
SFE,760,2,RDSF,2,1
SFE,760,3,RDSF,1,0.5
SFE,760,3,RDSF,2,1
SFE,760,4,RDSF,1,0.5
SFE,760,4,RDSF,2,1
SFE,760,5,RDSF,1,0.5
SFE,760,5,RDSF,2,1
SFE,761,2,RDSF,1,0.5
SFE,761,2,RDSF,2,1
SFE,761,3,RDSF,1,0.5
SFE,761,3,RDSF,2,1
SFE,761,4,RDSF,1,0.5
SFE,761,4,RDSF,2,1
SFE,761,5,RDSF,1,0.5
SFE,761,5,RDSF,2,1
SFE,762,3,RDSF,1,0.72
SFE,762,3,RDSF,2,2
SFE,762,3,HFLUX,1,%Q2%
SFE,762,5,RDSF,1,0.5
SFE,762,5,RDSF,2,1
SFE,763,3,RDSF,1,0.5
SFE,763,3,RDSF,2,1
SFE,763,5,RDSF,1,0.72
SFE,763,5,RDSF,2,2
SFE,763,5,HFLUX,1,%Q1%
SFE,764,3,RDSF,1,0.72
SFE,764,3,RDSF,2,2
SFE,764,3,HFLUX,1,%Q2%
SFE,764,5,RDSF,1,0.5
SFE,764,5,RDSF,2,1
SFE,765,5,RDSF,1,0.72
SFE,765,5,RDSF,2,2
SFE,765,5,HFLUX,1,%Q1%
SFE,766,2,RDSF,1,0.5
SFE,766,2,RDSF,2,1
SFE,767,2,RDSF,1,0.5
SFE,767,2,RDSF,2,1
SFE,767,3,RDSF,1,0.5
SFE,767,3,RDSF,2,1
SFE,768,2,RDSF,1,0.5
SFE,768,2,RDSF,2,1
SFE,768,5,RDSF,1,0.5
SFE,768,5,RDSF,2,1
SFE,769,2,RDSF,1,0.5
SFE,769,2,RDSF,2,1
SFE,770,3,RDSF,1,0.72
SFE,770,3,RDSF,2,2
SFE,770,3,HFLUX,1,%Q2%
SFE,771,5,RDSF,1,0.72
SFE,771,5,RDSF,2,2
SFE,771,5,HFLUX,1,%Q1%
SFE,773,3,RDSF,1,0.5
SFE,773,3,RDSF,2,1
SFE,774,5,RDSF,1,0.5
SFE,774,5,RDSF,2,1
SFE,776,3,RDSF,1,0.72
SFE,776,3,RDSF,2,2
SFE,776,3,HFLUX,1,%Q2%
SFE,777,4,RDSF,1,0.72
SFE,777,4,RDSF,2,2
SFE,777,4,HFLUX,1,%Q4%
SFE,777,5,RDSF,1,0.72
SFE,777,5,RDSF,2,2
SFE,777,5,HFLUX,1,%Q1%
SFE,778,4,RDSF,1,0.72
SFE,778,4,RDSF,2,2
SFE,778,4,HFLUX,1,%Q4%
SFE,779,4,RDSF,1,0.72
SFE,779,4,RDSF,2,2
SFE,779,4,HFLUX,1,%Q4%
SFE,780,2,RDSF,1,0.5
SFE,780,2,RDSF,2,1
SFE,780,4,RDSF,1,0.72
SFE,780,4,RDSF,2,2
SFE,780,4,HFLUX,1,%Q4%
SFE,781,2,RDSF,1,0.5
SFE,781,2,RDSF,2,1
SFE,781,4,RDSF,1,0.72
SFE,781,4,RDSF,2,2
SFE,781,4,HFLUX,1,%Q4%
SFE,782,2,RDSF,1,0.5
SFE,782,2,RDSF,2,1
SFE,782,4,RDSF,1,0.72
SFE,782,4,RDSF,2,2
SFE,782,4,HFLUX,1,%Q4%
SFE,783,2,RDSF,1,0.5
SFE,783,2,RDSF,2,1
SFE,783,4,RDSF,1,0.72
SFE,783,4,RDSF,2,2
SFE,783,4,HFLUX,1,%Q4%
SFE,784,2,RDSF,1,0.5
SFE,784,2,RDSF,2,1
SFE,784,4,RDSF,1,0.72
SFE,784,4,RDSF,2,2
SFE,784,4,HFLUX,1,%Q4%
SFE,785,2,RDSF,1,0.5
SFE,785,2,RDSF,2,1
SFE,785,4,RDSF,1,0.72
SFE,785,4,RDSF,2,2
SFE,785,4,HFLUX,1,%Q4%
SFE,786,2,RDSF,1,0.5
SFE,786,2,RDSF,2,1
SFE,786,4,RDSF,1,0.72
SFE,786,4,RDSF,2,2
SFE,786,4,HFLUX,1,%Q4%
SFE,787,2,RDSF,1,0.5
SFE,787,2,RDSF,2,1
SFE,787,4,RDSF,1,0.72
SFE,787,4,RDSF,2,2
SFE,787,4,HFLUX,1,%Q4%
SFE,788,2,RDSF,1,0.5
SFE,788,2,RDSF,2,1
SFE,788,4,RDSF,1,0.72
SFE,788,4,RDSF,2,2
SFE,788,4,HFLUX,1,%Q4%
SFE,789,2,RDSF,1,0.5
SFE,789,2,RDSF,2,1
SFE,789,4,RDSF,1,0.72
SFE,789,4,RDSF,2,2
SFE,789,4,HFLUX,1,%Q4%
SFE,790,4,RDSF,1,0.72
SFE,790,4,RDSF,2,2
SFE,790,4,HFLUX,1,%Q4%
SFE,791,4,RDSF,1,0.72
SFE,791,4,RDSF,2,2
SFE,791,4,HFLUX,1,%Q4%
SFE,792,3,RDSF,1,0.72
SFE,792,3,RDSF,2,2
SFE,792,3,HFLUX,1,%Q2%
SFE,792,4,RDSF,1,0.72
SFE,792,4,RDSF,2,2
SFE,792,4,HFLUX,1,%Q4%
SFE,793,2,RDSF,1,0.72
SFE,793,2,RDSF,2,2
SFE,793,2,HFLUX,1,%Q3%
SFE,793,5,RDSF,1,0.72
SFE,793,5,RDSF,2,2
SFE,793,5,HFLUX,1,%Q1%
SFE,794,2,RDSF,1,0.72
SFE,794,2,RDSF,2,2
SFE,794,2,HFLUX,1,%Q3%
SFE,795,2,RDSF,1,0.72
SFE,795,2,RDSF,2,2
SFE,795,2,HFLUX,1,%Q3%
SFE,796,2,RDSF,1,0.72
SFE,796,2,RDSF,2,2
SFE,796,2,HFLUX,1,%Q3%
SFE,796,4,RDSF,1,0.5
SFE,796,4,RDSF,2,1
SFE,797,2,RDSF,1,0.72
SFE,797,2,RDSF,2,2
SFE,797,2,HFLUX,1,%Q3%
SFE,797,4,RDSF,1,0.5
SFE,797,4,RDSF,2,1
SFE,798,2,RDSF,1,0.72
SFE,798,2,RDSF,2,2
SFE,798,2,HFLUX,1,%Q3%
SFE,798,4,RDSF,1,0.5
SFE,798,4,RDSF,2,1
SFE,799,2,RDSF,1,0.72
SFE,799,2,RDSF,2,2
SFE,799,2,HFLUX,1,%Q3%
SFE,799,4,RDSF,1,0.5
SFE,799,4,RDSF,2,1
SFE,800,2,RDSF,1,0.72
SFE,800,2,RDSF,2,2
SFE,800,2,HFLUX,1,%Q3%
SFE,800,4,RDSF,1,0.5
SFE,800,4,RDSF,2,1
SFE,801,2,RDSF,1,0.72
SFE,801,2,RDSF,2,2
SFE,801,2,HFLUX,1,%Q3%
SFE,801,4,RDSF,1,0.5
SFE,801,4,RDSF,2,1
SFE,802,2,RDSF,1,0.72
SFE,802,2,RDSF,2,2
SFE,802,2,HFLUX,1,%Q3%
SFE,802,4,RDSF,1,0.5
SFE,802,4,RDSF,2,1
SFE,803,2,RDSF,1,0.72
SFE,803,2,RDSF,2,2
SFE,803,2,HFLUX,1,%Q3%
SFE,803,4,RDSF,1,0.5
SFE,803,4,RDSF,2,1
SFE,804,2,RDSF,1,0.72
SFE,804,2,RDSF,2,2
SFE,804,2,HFLUX,1,%Q3%
SFE,804,4,RDSF,1,0.5
SFE,804,4,RDSF,2,1
SFE,805,2,RDSF,1,0.72
SFE,805,2,RDSF,2,2
SFE,805,2,HFLUX,1,%Q3%
SFE,805,4,RDSF,1,0.5
SFE,805,4,RDSF,2,1
SFE,806,2,RDSF,1,0.72
SFE,806,2,RDSF,2,2
SFE,806,2,HFLUX,1,%Q3%
SFE,807,2,RDSF,1,0.72
SFE,807,2,RDSF,2,2
SFE,807,2,HFLUX,1,%Q3%
SFE,808,2,RDSF,1,0.72
SFE,808,2,RDSF,2,2
SFE,808,2,HFLUX,1,%Q3%
SFE,808,3,RDSF,1,0.72
SFE,808,3,RDSF,2,2
SFE,808,3,HFLUX,1,%Q2%
SFE,809,5,RDSF,1,0.72
SFE,809,5,RDSF,2,2
SFE,809,5,HFLUX,1,%Q1%
SFE,811,3,RDSF,1,0.5
SFE,811,3,RDSF,2,1
SFE,812,5,RDSF,1,0.5
SFE,812,5,RDSF,2,1
SFE,814,3,RDSF,1,0.72
SFE,814,3,RDSF,2,2
SFE,814,3,HFLUX,1,%Q2%
SFE,815,5,RDSF,1,0.72
SFE,815,5,RDSF,2,2
SFE,815,5,HFLUX,1,%Q1%
SFE,816,4,RDSF,1,0.5
SFE,816,4,RDSF,2,1
SFE,818,1,RDSF,1,0.5
SFE,818,1,RDSF,2,1
SFE,818,2,RDSF,1,0.5
SFE,818,2,RDSF,2,1
SFE,818,6,RDSF,1,0.5
SFE,818,6,RDSF,2,1
SFE,819,1,RDSF,1,0.5
SFE,819,1,RDSF,2,1
SFE,819,2,RDSF,1,0.5
SFE,819,2,RDSF,2,1
SFE,819,6,RDSF,1,0.5
SFE,819,6,RDSF,2,1
SFE,820,1,RDSF,1,0.5
SFE,820,1,RDSF,2,1
SFE,820,2,RDSF,1,0.5
SFE,820,2,RDSF,2,1
SFE,820,6,RDSF,1,0.5
SFE,820,6,RDSF,2,1
SFE,821,1,RDSF,1,0.5
SFE,821,1,RDSF,2,1
SFE,821,2,RDSF,1,0.5
SFE,821,2,RDSF,2,1
SFE,821,6,RDSF,1,0.5
SFE,821,6,RDSF,2,1
SFE,822,1,RDSF,1,0.5
SFE,822,1,RDSF,2,1
SFE,822,2,RDSF,1,0.5
SFE,822,2,RDSF,2,1
SFE,822,6,RDSF,1,0.5
SFE,822,6,RDSF,2,1
SFE,823,1,RDSF,1,0.5
SFE,823,1,RDSF,2,1
SFE,823,2,RDSF,1,0.5
SFE,823,2,RDSF,2,1
SFE,823,6,RDSF,1,0.5
SFE,823,6,RDSF,2,1
SFE,824,1,RDSF,1,0.5
SFE,824,1,RDSF,2,1
SFE,824,2,RDSF,1,0.5
SFE,824,2,RDSF,2,1
SFE,824,6,RDSF,1,0.5
SFE,824,6,RDSF,2,1
SFE,825,1,RDSF,1,0.5
SFE,825,1,RDSF,2,1
SFE,825,2,RDSF,1,0.5
SFE,825,2,RDSF,2,1
SFE,825,6,RDSF,1,0.5
SFE,825,6,RDSF,2,1
SFE,826,1,RDSF,1,0.5
SFE,826,1,RDSF,2,1
SFE,826,2,RDSF,1,0.5
SFE,826,2,RDSF,2,1
SFE,826,6,RDSF,1,0.5
SFE,826,6,RDSF,2,1
SFE,827,1,RDSF,1,0.5
SFE,827,1,RDSF,2,1
SFE,827,2,RDSF,1,0.5
SFE,827,2,RDSF,2,1
SFE,827,6,RDSF,1,0.5
SFE,827,6,RDSF,2,1
SFE,829,4,RDSF,1,0.5
SFE,829,4,RDSF,2,1
SFE,830,3,RDSF,1,0.72
SFE,830,3,RDSF,2,2
SFE,830,3,HFLUX,1,%Q2%
SFE,831,3,RDSF,1,0.5
SFE,831,3,RDSF,2,1
SFE,831,5,RDSF,1,0.72
SFE,831,5,RDSF,2,2
SFE,831,5,HFLUX,1,%Q1%
SFE,832,1,RDSF,1,0.5
SFE,832,1,RDSF,2,1
SFE,832,5,RDSF,1,0.5
SFE,832,5,RDSF,2,1
SFE,832,6,RDSF,1,0.5
SFE,832,6,RDSF,2,1
SFE,833,1,RDSF,1,0.5
SFE,833,1,RDSF,2,1
SFE,833,6,RDSF,1,0.5
SFE,833,6,RDSF,2,1
SFE,834,1,RDSF,1,0.5
SFE,834,1,RDSF,2,1
SFE,834,6,RDSF,1,0.5
SFE,834,6,RDSF,2,1
SFE,835,1,RDSF,1,0.5
SFE,835,1,RDSF,2,1
SFE,835,6,RDSF,1,0.5
SFE,835,6,RDSF,2,1
SFE,836,1,RDSF,1,0.5
SFE,836,1,RDSF,2,1
SFE,836,6,RDSF,1,0.5
SFE,836,6,RDSF,2,1
SFE,837,1,RDSF,1,0.5
SFE,837,1,RDSF,2,1
SFE,837,6,RDSF,1,0.5
SFE,837,6,RDSF,2,1
SFE,838,1,RDSF,1,0.5
SFE,838,1,RDSF,2,1
SFE,838,6,RDSF,1,0.5
SFE,838,6,RDSF,2,1
SFE,839,1,RDSF,1,0.5
SFE,839,1,RDSF,2,1
SFE,839,6,RDSF,1,0.5
SFE,839,6,RDSF,2,1
SFE,840,1,RDSF,1,0.5
SFE,840,1,RDSF,2,1
SFE,840,6,RDSF,1,0.5
SFE,840,6,RDSF,2,1
SFE,841,1,RDSF,1,0.5
SFE,841,1,RDSF,2,1
SFE,841,6,RDSF,1,0.5
SFE,841,6,RDSF,2,1
SFE,842,1,RDSF,1,0.5
SFE,842,1,RDSF,2,1
SFE,842,6,RDSF,1,0.5
SFE,842,6,RDSF,2,1
SFE,843,1,RDSF,1,0.5
SFE,843,1,RDSF,2,1
SFE,843,3,RDSF,1,0.5
SFE,843,3,RDSF,2,1
SFE,843,6,RDSF,1,0.5
SFE,843,6,RDSF,2,1
SFE,844,3,RDSF,1,0.72
SFE,844,3,RDSF,2,2
SFE,844,3,HFLUX,1,%Q2%
SFE,844,5,RDSF,1,0.5
SFE,844,5,RDSF,2,1
SFE,845,3,RDSF,1,0.5
SFE,845,3,RDSF,2,1
SFE,845,5,RDSF,1,0.72
SFE,845,5,RDSF,2,2
SFE,845,5,HFLUX,1,%Q1%
SFE,846,1,RDSF,1,0.5
SFE,846,1,RDSF,2,1
SFE,846,5,RDSF,1,0.5
SFE,846,5,RDSF,2,1
SFE,846,6,RDSF,1,0.5
SFE,846,6,RDSF,2,1
SFE,847,1,RDSF,1,0.5
SFE,847,1,RDSF,2,1
SFE,847,6,RDSF,1,0.5
SFE,847,6,RDSF,2,1
SFE,849,1,RDSF,1,0.5
SFE,849,1,RDSF,2,1
SFE,849,6,RDSF,1,0.5
SFE,849,6,RDSF,2,1
SFE,850,1,RDSF,1,0.5
SFE,850,1,RDSF,2,1
SFE,850,6,RDSF,1,0.5
SFE,850,6,RDSF,2,1
SFE,851,1,RDSF,1,0.5
SFE,851,1,RDSF,2,1
SFE,851,6,RDSF,1,0.5
SFE,851,6,RDSF,2,1
SFE,852,1,RDSF,1,0.5
SFE,852,1,RDSF,2,1
SFE,852,6,RDSF,1,0.5
SFE,852,6,RDSF,2,1
SFE,853,1,RDSF,1,0.5
SFE,853,1,RDSF,2,1
SFE,853,6,RDSF,1,0.5
SFE,853,6,RDSF,2,1
SFE,854,1,RDSF,1,0.5
SFE,854,1,RDSF,2,1
SFE,854,6,RDSF,1,0.5
SFE,854,6,RDSF,2,1
SFE,856,1,RDSF,1,0.5
SFE,856,1,RDSF,2,1
SFE,856,6,RDSF,1,0.5
SFE,856,6,RDSF,2,1
SFE,857,1,RDSF,1,0.5
SFE,857,1,RDSF,2,1
SFE,857,3,RDSF,1,0.5
SFE,857,3,RDSF,2,1
SFE,857,6,RDSF,1,0.5
SFE,857,6,RDSF,2,1
SFE,858,3,RDSF,1,0.72
SFE,858,3,RDSF,2,2
SFE,858,3,HFLUX,1,%Q2%
SFE,858,5,RDSF,1,0.5
SFE,858,5,RDSF,2,1
SFE,859,3,RDSF,1,0.5
SFE,859,3,RDSF,2,1
SFE,859,5,RDSF,1,0.72
SFE,859,5,RDSF,2,2
SFE,859,5,HFLUX,1,%Q1%
SFE,860,1,RDSF,1,0.5
SFE,860,1,RDSF,2,1
SFE,860,5,RDSF,1,0.5
SFE,860,5,RDSF,2,1
SFE,860,6,RDSF,1,0.5
SFE,860,6,RDSF,2,1
SFE,861,1,RDSF,1,0.5
SFE,861,1,RDSF,2,1
SFE,861,6,RDSF,1,0.5
SFE,861,6,RDSF,2,1
SFE,862,1,RDSF,1,0.5
SFE,862,1,RDSF,2,1
SFE,862,6,RDSF,1,0.5
SFE,862,6,RDSF,2,1
SFE,863,1,RDSF,1,0.5
SFE,863,1,RDSF,2,1
SFE,863,6,RDSF,1,0.5
SFE,863,6,RDSF,2,1
SFE,864,1,RDSF,1,0.5
SFE,864,1,RDSF,2,1
SFE,864,6,RDSF,1,0.5
SFE,864,6,RDSF,2,1
SFE,865,1,RDSF,1,0.5
SFE,865,1,RDSF,2,1
SFE,865,6,RDSF,1,0.5
SFE,865,6,RDSF,2,1
SFE,866,1,RDSF,1,0.5
SFE,866,1,RDSF,2,1
SFE,866,6,RDSF,1,0.5
SFE,866,6,RDSF,2,1
SFE,867,1,RDSF,1,0.5
SFE,867,1,RDSF,2,1
SFE,867,6,RDSF,1,0.5
SFE,867,6,RDSF,2,1
SFE,868,1,RDSF,1,0.5
SFE,868,1,RDSF,2,1
SFE,868,6,RDSF,1,0.5
SFE,868,6,RDSF,2,1
SFE,869,1,RDSF,1,0.5
SFE,869,1,RDSF,2,1
SFE,869,6,RDSF,1,0.5
SFE,869,6,RDSF,2,1
SFE,870,1,RDSF,1,0.5
SFE,870,1,RDSF,2,1
SFE,870,6,RDSF,1,0.5
SFE,870,6,RDSF,2,1
SFE,871,1,RDSF,1,0.5
SFE,871,1,RDSF,2,1
SFE,871,3,RDSF,1,0.5
SFE,871,3,RDSF,2,1
SFE,871,6,RDSF,1,0.5
SFE,871,6,RDSF,2,1
SFE,872,3,RDSF,1,0.72
SFE,872,3,RDSF,2,2
SFE,872,3,HFLUX,1,%Q2%
SFE,872,5,RDSF,1,0.5
SFE,872,5,RDSF,2,1
SFE,873,3,RDSF,1,0.5
SFE,873,3,RDSF,2,1
SFE,873,5,RDSF,1,0.72
SFE,873,5,RDSF,2,2
SFE,873,5,HFLUX,1,%Q1%
SFE,874,1,RDSF,1,0.5
SFE,874,1,RDSF,2,1
SFE,874,5,RDSF,1,0.5
SFE,874,5,RDSF,2,1
SFE,874,6,RDSF,1,0.5
SFE,874,6,RDSF,2,1
SFE,875,1,RDSF,1,0.5
SFE,875,1,RDSF,2,1
SFE,875,6,RDSF,1,0.5
SFE,875,6,RDSF,2,1
SFE,876,1,RDSF,1,0.5
SFE,876,1,RDSF,2,1
SFE,876,6,RDSF,1,0.5
SFE,876,6,RDSF,2,1
SFE,877,1,RDSF,1,0.5
SFE,877,1,RDSF,2,1
SFE,877,6,RDSF,1,0.5
SFE,877,6,RDSF,2,1
SFE,878,1,RDSF,1,0.5
SFE,878,1,RDSF,2,1
SFE,879,1,RDSF,1,0.5
SFE,879,1,RDSF,2,1
SFE,880,1,RDSF,1,0.5
SFE,880,1,RDSF,2,1
SFE,881,1,RDSF,1,0.5
SFE,881,1,RDSF,2,1
SFE,882,1,RDSF,1,0.5
SFE,882,1,RDSF,2,1
SFE,882,6,RDSF,1,0.5
SFE,882,6,RDSF,2,1
SFE,883,1,RDSF,1,0.5
SFE,883,1,RDSF,2,1
SFE,883,6,RDSF,1,0.5
SFE,883,6,RDSF,2,1
SFE,884,1,RDSF,1,0.5
SFE,884,1,RDSF,2,1
SFE,884,6,RDSF,1,0.5
SFE,884,6,RDSF,2,1
SFE,885,1,RDSF,1,0.5
SFE,885,1,RDSF,2,1
SFE,885,3,RDSF,1,0.5
SFE,885,3,RDSF,2,1
SFE,885,6,RDSF,1,0.5
SFE,885,6,RDSF,2,1
SFE,886,3,RDSF,1,0.72
SFE,886,3,RDSF,2,2
SFE,886,3,HFLUX,1,%Q2%
SFE,886,5,RDSF,1,0.5
SFE,886,5,RDSF,2,1
SFE,887,3,RDSF,1,0.5
SFE,887,3,RDSF,2,1
SFE,887,5,RDSF,1,0.72
SFE,887,5,RDSF,2,2
SFE,887,5,HFLUX,1,%Q1%
SFE,888,1,RDSF,1,0.5
SFE,888,1,RDSF,2,1
SFE,888,5,RDSF,1,0.5
SFE,888,5,RDSF,2,1
SFE,888,6,RDSF,1,0.5
SFE,888,6,RDSF,2,1
SFE,889,1,RDSF,1,0.5
SFE,889,1,RDSF,2,1
SFE,889,6,RDSF,1,0.5
SFE,889,6,RDSF,2,1
SFE,890,1,RDSF,1,0.5
SFE,890,1,RDSF,2,1
SFE,890,6,RDSF,1,0.5
SFE,890,6,RDSF,2,1
SFE,891,1,RDSF,1,0.5
SFE,891,1,RDSF,2,1
SFE,891,6,RDSF,1,0.5
SFE,891,6,RDSF,2,1
SFE,892,1,RDSF,1,0.5
SFE,892,1,RDSF,2,1
SFE,893,1,RDSF,1,0.5
SFE,893,1,RDSF,2,1
SFE,894,1,RDSF,1,0.5
SFE,894,1,RDSF,2,1
SFE,895,1,RDSF,1,0.5
SFE,895,1,RDSF,2,1
SFE,896,1,RDSF,1,0.5
SFE,896,1,RDSF,2,1
SFE,896,6,RDSF,1,0.5
SFE,896,6,RDSF,2,1
SFE,897,1,RDSF,1,0.5
SFE,897,1,RDSF,2,1
SFE,897,6,RDSF,1,0.5
SFE,897,6,RDSF,2,1
SFE,898,1,RDSF,1,0.5
SFE,898,1,RDSF,2,1
SFE,898,6,RDSF,1,0.5
SFE,898,6,RDSF,2,1
SFE,899,1,RDSF,1,0.5
SFE,899,1,RDSF,2,1
SFE,899,3,RDSF,1,0.5
SFE,899,3,RDSF,2,1
SFE,899,6,RDSF,1,0.5
SFE,899,6,RDSF,2,1
SFE,900,3,RDSF,1,0.72
SFE,900,3,RDSF,2,2
SFE,900,3,HFLUX,1,%Q2%
SFE,900,5,RDSF,1,0.5
SFE,900,5,RDSF,2,1
SFE,901,3,RDSF,1,0.5
SFE,901,3,RDSF,2,1
SFE,901,5,RDSF,1,0.72
SFE,901,5,RDSF,2,2
SFE,901,5,HFLUX,1,%Q1%
SFE,902,1,RDSF,1,0.5
SFE,902,1,RDSF,2,1
SFE,902,5,RDSF,1,0.5
SFE,902,5,RDSF,2,1
SFE,902,6,RDSF,1,0.5
SFE,902,6,RDSF,2,1
SFE,903,1,RDSF,1,0.5
SFE,903,1,RDSF,2,1
SFE,903,6,RDSF,1,0.5
SFE,903,6,RDSF,2,1
SFE,904,1,RDSF,1,0.5
SFE,904,1,RDSF,2,1
SFE,904,6,RDSF,1,0.5
SFE,904,6,RDSF,2,1
SFE,905,1,RDSF,1,0.5
SFE,905,1,RDSF,2,1
SFE,905,6,RDSF,1,0.5
SFE,905,6,RDSF,2,1
SFE,906,1,RDSF,1,0.5
SFE,906,1,RDSF,2,1
SFE,907,1,RDSF,1,0.5
SFE,907,1,RDSF,2,1
SFE,908,1,RDSF,1,0.5
SFE,908,1,RDSF,2,1
SFE,909,1,RDSF,1,0.5
SFE,909,1,RDSF,2,1
SFE,910,1,RDSF,1,0.5
SFE,910,1,RDSF,2,1
SFE,910,6,RDSF,1,0.5
SFE,910,6,RDSF,2,1
SFE,911,1,RDSF,1,0.5
SFE,911,1,RDSF,2,1
SFE,911,6,RDSF,1,0.5
SFE,911,6,RDSF,2,1
SFE,912,1,RDSF,1,0.5
SFE,912,1,RDSF,2,1
SFE,912,6,RDSF,1,0.5
SFE,912,6,RDSF,2,1
SFE,913,1,RDSF,1,0.5
SFE,913,1,RDSF,2,1
SFE,913,3,RDSF,1,0.5
SFE,913,3,RDSF,2,1
SFE,913,6,RDSF,1,0.5
SFE,913,6,RDSF,2,1
SFE,914,3,RDSF,1,0.72
SFE,914,3,RDSF,2,2
SFE,914,3,HFLUX,1,%Q2%
SFE,914,5,RDSF,1,0.5
SFE,914,5,RDSF,2,1
SFE,915,3,RDSF,1,0.5
SFE,915,3,RDSF,2,1
SFE,915,5,RDSF,1,0.72
SFE,915,5,RDSF,2,2
SFE,915,5,HFLUX,1,%Q1%
SFE,916,1,RDSF,1,0.5
SFE,916,1,RDSF,2,1
SFE,916,5,RDSF,1,0.5
SFE,916,5,RDSF,2,1
SFE,916,6,RDSF,1,0.5
SFE,916,6,RDSF,2,1
SFE,917,1,RDSF,1,0.5
SFE,917,1,RDSF,2,1
SFE,917,6,RDSF,1,0.5
SFE,917,6,RDSF,2,1
SFE,918,1,RDSF,1,0.5
SFE,918,1,RDSF,2,1
SFE,918,6,RDSF,1,0.5
SFE,918,6,RDSF,2,1
SFE,919,1,RDSF,1,0.5
SFE,919,1,RDSF,2,1
SFE,919,6,RDSF,1,0.5
SFE,919,6,RDSF,2,1
SFE,920,1,RDSF,1,0.5
SFE,920,1,RDSF,2,1
SFE,921,1,RDSF,1,0.5
SFE,921,1,RDSF,2,1
SFE,922,1,RDSF,1,0.5
SFE,922,1,RDSF,2,1
SFE,923,1,RDSF,1,0.5
SFE,923,1,RDSF,2,1
SFE,924,1,RDSF,1,0.5
SFE,924,1,RDSF,2,1
SFE,924,6,RDSF,1,0.5
SFE,924,6,RDSF,2,1
SFE,925,1,RDSF,1,0.5
SFE,925,1,RDSF,2,1
SFE,925,6,RDSF,1,0.5
SFE,925,6,RDSF,2,1
SFE,926,1,RDSF,1,0.5
SFE,926,1,RDSF,2,1
SFE,926,6,RDSF,1,0.5
SFE,926,6,RDSF,2,1
SFE,927,1,RDSF,1,0.5
SFE,927,1,RDSF,2,1
SFE,927,3,RDSF,1,0.5
SFE,927,3,RDSF,2,1
SFE,927,6,RDSF,1,0.5
SFE,927,6,RDSF,2,1
SFE,928,3,RDSF,1,0.72
SFE,928,3,RDSF,2,2
SFE,928,3,HFLUX,1,%Q2%
SFE,928,5,RDSF,1,0.5
SFE,928,5,RDSF,2,1
SFE,929,3,RDSF,1,0.5
SFE,929,3,RDSF,2,1
SFE,929,5,RDSF,1,0.72
SFE,929,5,RDSF,2,2
SFE,929,5,HFLUX,1,%Q1%
SFE,930,1,RDSF,1,0.5
SFE,930,1,RDSF,2,1
SFE,930,5,RDSF,1,0.5
SFE,930,5,RDSF,2,1
SFE,930,6,RDSF,1,0.5
SFE,930,6,RDSF,2,1
SFE,931,1,RDSF,1,0.5
SFE,931,1,RDSF,2,1
SFE,931,6,RDSF,1,0.5
SFE,931,6,RDSF,2,1
SFE,932,1,RDSF,1,0.5
SFE,932,1,RDSF,2,1
SFE,932,6,RDSF,1,0.5
SFE,932,6,RDSF,2,1
SFE,933,1,RDSF,1,0.5
SFE,933,1,RDSF,2,1
SFE,933,6,RDSF,1,0.5
SFE,933,6,RDSF,2,1
SFE,934,1,RDSF,1,0.5
SFE,934,1,RDSF,2,1
SFE,934,6,RDSF,1,0.5
SFE,934,6,RDSF,2,1
SFE,935,1,RDSF,1,0.5
SFE,935,1,RDSF,2,1
SFE,935,6,RDSF,1,0.5
SFE,935,6,RDSF,2,1
SFE,936,1,RDSF,1,0.5
SFE,936,1,RDSF,2,1
SFE,936,6,RDSF,1,0.5
SFE,936,6,RDSF,2,1
SFE,937,1,RDSF,1,0.5
SFE,937,1,RDSF,2,1
SFE,937,6,RDSF,1,0.5
SFE,937,6,RDSF,2,1
SFE,938,1,RDSF,1,0.5
SFE,938,1,RDSF,2,1
SFE,938,6,RDSF,1,0.5
SFE,938,6,RDSF,2,1
SFE,939,1,RDSF,1,0.5
SFE,939,1,RDSF,2,1
SFE,939,6,RDSF,1,0.5
SFE,939,6,RDSF,2,1
SFE,940,1,RDSF,1,0.5
SFE,940,1,RDSF,2,1
SFE,940,6,RDSF,1,0.5
SFE,940,6,RDSF,2,1
SFE,941,1,RDSF,1,0.5
SFE,941,1,RDSF,2,1
SFE,941,3,RDSF,1,0.5
SFE,941,3,RDSF,2,1
SFE,941,6,RDSF,1,0.5
SFE,941,6,RDSF,2,1
SFE,942,3,RDSF,1,0.72
SFE,942,3,RDSF,2,2
SFE,942,3,HFLUX,1,%Q2%
SFE,942,5,RDSF,1,0.5
SFE,942,5,RDSF,2,1
SFE,943,3,RDSF,1,0.5
SFE,943,3,RDSF,2,1
SFE,943,5,RDSF,1,0.72
SFE,943,5,RDSF,2,2
SFE,943,5,HFLUX,1,%Q1%
SFE,944,1,RDSF,1,0.5
SFE,944,1,RDSF,2,1
SFE,944,5,RDSF,1,0.5
SFE,944,5,RDSF,2,1
SFE,944,6,RDSF,1,0.5
SFE,944,6,RDSF,2,1
SFE,945,1,RDSF,1,0.5
SFE,945,1,RDSF,2,1
SFE,945,6,RDSF,1,0.5
SFE,945,6,RDSF,2,1
SFE,947,1,RDSF,1,0.5
SFE,947,1,RDSF,2,1
SFE,947,6,RDSF,1,0.5
SFE,947,6,RDSF,2,1
SFE,948,1,RDSF,1,0.5
SFE,948,1,RDSF,2,1
SFE,948,6,RDSF,1,0.5
SFE,948,6,RDSF,2,1
SFE,949,1,RDSF,1,0.5
SFE,949,1,RDSF,2,1
SFE,949,6,RDSF,1,0.5
SFE,949,6,RDSF,2,1
SFE,950,1,RDSF,1,0.5
SFE,950,1,RDSF,2,1
SFE,950,6,RDSF,1,0.5
SFE,950,6,RDSF,2,1
SFE,951,1,RDSF,1,0.5
SFE,951,1,RDSF,2,1
SFE,951,6,RDSF,1,0.5
SFE,951,6,RDSF,2,1
SFE,952,1,RDSF,1,0.5
SFE,952,1,RDSF,2,1
SFE,952,6,RDSF,1,0.5
SFE,952,6,RDSF,2,1
SFE,954,1,RDSF,1,0.5
SFE,954,1,RDSF,2,1
SFE,954,6,RDSF,1,0.5
SFE,954,6,RDSF,2,1
SFE,955,1,RDSF,1,0.5
SFE,955,1,RDSF,2,1
SFE,955,3,RDSF,1,0.5
SFE,955,3,RDSF,2,1
SFE,955,6,RDSF,1,0.5
SFE,955,6,RDSF,2,1
SFE,956,3,RDSF,1,0.72
SFE,956,3,RDSF,2,2
SFE,956,3,HFLUX,1,%Q2%
SFE,956,5,RDSF,1,0.5
SFE,956,5,RDSF,2,1
SFE,957,3,RDSF,1,0.5
SFE,957,3,RDSF,2,1
SFE,957,5,RDSF,1,0.72
SFE,957,5,RDSF,2,2
SFE,957,5,HFLUX,1,%Q1%
SFE,958,1,RDSF,1,0.5
SFE,958,1,RDSF,2,1
SFE,958,5,RDSF,1,0.5
SFE,958,5,RDSF,2,1
SFE,958,6,RDSF,1,0.5
SFE,958,6,RDSF,2,1
SFE,959,1,RDSF,1,0.5
SFE,959,1,RDSF,2,1
SFE,959,6,RDSF,1,0.5
SFE,959,6,RDSF,2,1
SFE,960,1,RDSF,1,0.5
SFE,960,1,RDSF,2,1
SFE,960,6,RDSF,1,0.5
SFE,960,6,RDSF,2,1
SFE,961,1,RDSF,1,0.5
SFE,961,1,RDSF,2,1
SFE,961,6,RDSF,1,0.5
SFE,961,6,RDSF,2,1
SFE,962,1,RDSF,1,0.5
SFE,962,1,RDSF,2,1
SFE,962,6,RDSF,1,0.5
SFE,962,6,RDSF,2,1
SFE,963,1,RDSF,1,0.5
SFE,963,1,RDSF,2,1
SFE,963,6,RDSF,1,0.5
SFE,963,6,RDSF,2,1
SFE,964,1,RDSF,1,0.5
SFE,964,1,RDSF,2,1
SFE,964,6,RDSF,1,0.5
SFE,964,6,RDSF,2,1
SFE,965,1,RDSF,1,0.5
SFE,965,1,RDSF,2,1
SFE,965,6,RDSF,1,0.5
SFE,965,6,RDSF,2,1
SFE,966,1,RDSF,1,0.5
SFE,966,1,RDSF,2,1
SFE,966,6,RDSF,1,0.5
SFE,966,6,RDSF,2,1
SFE,967,1,RDSF,1,0.5
SFE,967,1,RDSF,2,1
SFE,967,6,RDSF,1,0.5
SFE,967,6,RDSF,2,1
SFE,968,1,RDSF,1,0.5
SFE,968,1,RDSF,2,1
SFE,968,6,RDSF,1,0.5
SFE,968,6,RDSF,2,1
SFE,969,1,RDSF,1,0.5
SFE,969,1,RDSF,2,1
SFE,969,3,RDSF,1,0.5
SFE,969,3,RDSF,2,1
SFE,969,6,RDSF,1,0.5
SFE,969,6,RDSF,2,1
SFE,970,3,RDSF,1,0.72
SFE,970,3,RDSF,2,2
SFE,970,3,HFLUX,1,%Q2%
SFE,970,5,RDSF,1,0.5
SFE,970,5,RDSF,2,1
SFE,971,5,RDSF,1,0.72
SFE,971,5,RDSF,2,2
SFE,971,5,HFLUX,1,%Q1%
SFE,972,2,RDSF,1,0.5
SFE,972,2,RDSF,2,1
SFE,974,1,RDSF,1,0.5
SFE,974,1,RDSF,2,1
SFE,974,4,RDSF,1,0.5
SFE,974,4,RDSF,2,1
SFE,974,6,RDSF,1,0.5
SFE,974,6,RDSF,2,1
SFE,975,1,RDSF,1,0.5
SFE,975,1,RDSF,2,1
SFE,975,4,RDSF,1,0.5
SFE,975,4,RDSF,2,1
SFE,975,6,RDSF,1,0.5
SFE,975,6,RDSF,2,1
SFE,976,1,RDSF,1,0.5
SFE,976,1,RDSF,2,1
SFE,976,4,RDSF,1,0.5
SFE,976,4,RDSF,2,1
SFE,976,6,RDSF,1,0.5
SFE,976,6,RDSF,2,1
SFE,977,1,RDSF,1,0.5
SFE,977,1,RDSF,2,1
SFE,977,4,RDSF,1,0.5
SFE,977,4,RDSF,2,1
SFE,977,6,RDSF,1,0.5
SFE,977,6,RDSF,2,1
SFE,978,1,RDSF,1,0.5
SFE,978,1,RDSF,2,1
SFE,978,4,RDSF,1,0.5
SFE,978,4,RDSF,2,1
SFE,978,6,RDSF,1,0.5
SFE,978,6,RDSF,2,1
SFE,979,1,RDSF,1,0.5
SFE,979,1,RDSF,2,1
SFE,979,4,RDSF,1,0.5
SFE,979,4,RDSF,2,1
SFE,979,6,RDSF,1,0.5
SFE,979,6,RDSF,2,1
SFE,980,1,RDSF,1,0.5
SFE,980,1,RDSF,2,1
SFE,980,4,RDSF,1,0.5
SFE,980,4,RDSF,2,1
SFE,980,6,RDSF,1,0.5
SFE,980,6,RDSF,2,1
SFE,981,1,RDSF,1,0.5
SFE,981,1,RDSF,2,1
SFE,981,4,RDSF,1,0.5
SFE,981,4,RDSF,2,1
SFE,981,6,RDSF,1,0.5
SFE,981,6,RDSF,2,1
SFE,982,1,RDSF,1,0.5
SFE,982,1,RDSF,2,1
SFE,982,4,RDSF,1,0.5
SFE,982,4,RDSF,2,1
SFE,982,6,RDSF,1,0.5
SFE,982,6,RDSF,2,1
SFE,983,1,RDSF,1,0.5
SFE,983,1,RDSF,2,1
SFE,983,4,RDSF,1,0.5
SFE,983,4,RDSF,2,1
SFE,983,6,RDSF,1,0.5
SFE,983,6,RDSF,2,1
SFE,985,2,RDSF,1,0.5
SFE,985,2,RDSF,2,1
SFE,986,3,RDSF,1,0.72
SFE,986,3,RDSF,2,2
SFE,986,3,HFLUX,1,%Q2%
SFE,987,5,RDSF,1,0.72
SFE,987,5,RDSF,2,2
SFE,987,5,HFLUX,1,%Q1%
SFE,989,3,RDSF,1,0.5
SFE,989,3,RDSF,2,1
SFE,990,5,RDSF,1,0.5
SFE,990,5,RDSF,2,1
SFE,992,3,RDSF,1,0.72
SFE,992,3,RDSF,2,2
SFE,992,3,HFLUX,1,%Q2%
SFE,993,4,RDSF,1,0.72
SFE,993,4,RDSF,2,2
SFE,993,4,HFLUX,1,%Q4%
SFE,993,5,RDSF,1,0.72
SFE,993,5,RDSF,2,2
SFE,993,5,HFLUX,1,%Q1%
SFE,994,4,RDSF,1,0.72
SFE,994,4,RDSF,2,2
SFE,994,4,HFLUX,1,%Q4%
SFE,995,4,RDSF,1,0.72
SFE,995,4,RDSF,2,2
SFE,995,4,HFLUX,1,%Q4%
SFE,996,2,RDSF,1,0.5
SFE,996,2,RDSF,2,1
SFE,996,4,RDSF,1,0.72
SFE,996,4,RDSF,2,2
SFE,996,4,HFLUX,1,%Q4%
SFE,997,2,RDSF,1,0.5
SFE,997,2,RDSF,2,1
SFE,997,4,RDSF,1,0.72
SFE,997,4,RDSF,2,2
SFE,997,4,HFLUX,1,%Q4%
SFE,998,2,RDSF,1,0.5
SFE,998,2,RDSF,2,1
SFE,998,4,RDSF,1,0.72
SFE,998,4,RDSF,2,2
SFE,998,4,HFLUX,1,%Q4%
SFE,999,2,RDSF,1,0.5
SFE,999,2,RDSF,2,1
SFE,999,4,RDSF,1,0.72
SFE,999,4,RDSF,2,2
SFE,999,4,HFLUX,1,%Q4%
SFE,1000,2,RDSF,1,0.5
SFE,1000,2,RDSF,2,1
SFE,1000,4,RDSF,1,0.72
SFE,1000,4,RDSF,2,2
SFE,1000,4,HFLUX,1,%Q4%
SFE,1001,2,RDSF,1,0.5
SFE,1001,2,RDSF,2,1
SFE,1001,4,RDSF,1,0.72
SFE,1001,4,RDSF,2,2
SFE,1001,4,HFLUX,1,%Q4%
SFE,1002,2,RDSF,1,0.5
SFE,1002,2,RDSF,2,1
SFE,1002,4,RDSF,1,0.72
SFE,1002,4,RDSF,2,2
SFE,1002,4,HFLUX,1,%Q4%
SFE,1003,2,RDSF,1,0.5
SFE,1003,2,RDSF,2,1
SFE,1003,4,RDSF,1,0.72
SFE,1003,4,RDSF,2,2
SFE,1003,4,HFLUX,1,%Q4%
SFE,1004,2,RDSF,1,0.5
SFE,1004,2,RDSF,2,1
SFE,1004,4,RDSF,1,0.72
SFE,1004,4,RDSF,2,2
SFE,1004,4,HFLUX,1,%Q4%
SFE,1005,2,RDSF,1,0.5
SFE,1005,2,RDSF,2,1
SFE,1005,4,RDSF,1,0.72
SFE,1005,4,RDSF,2,2
SFE,1005,4,HFLUX,1,%Q4%
SFE,1006,4,RDSF,1,0.72
SFE,1006,4,RDSF,2,2
SFE,1006,4,HFLUX,1,%Q4%
SFE,1007,4,RDSF,1,0.72
SFE,1007,4,RDSF,2,2
SFE,1007,4,HFLUX,1,%Q4%
SFE,1008,3,RDSF,1,0.72
SFE,1008,3,RDSF,2,2
SFE,1008,3,HFLUX,1,%Q2%
SFE,1008,4,RDSF,1,0.72
SFE,1008,4,RDSF,2,2
SFE,1008,4,HFLUX,1,%Q4%
SFE,1009,2,RDSF,1,0.72
SFE,1009,2,RDSF,2,2
SFE,1009,2,HFLUX,1,%Q3%
SFE,1009,5,RDSF,1,0.72
SFE,1009,5,RDSF,2,2
SFE,1009,5,HFLUX,1,%Q1%
SFE,1010,2,RDSF,1,0.72
SFE,1010,2,RDSF,2,2
SFE,1010,2,HFLUX,1,%Q3%
SFE,1011,2,RDSF,1,0.72
SFE,1011,2,RDSF,2,2
SFE,1011,2,HFLUX,1,%Q3%
SFE,1012,2,RDSF,1,0.72
SFE,1012,2,RDSF,2,2
SFE,1012,2,HFLUX,1,%Q3%
SFE,1012,4,RDSF,1,0.5
SFE,1012,4,RDSF,2,1
SFE,1013,2,RDSF,1,0.72
SFE,1013,2,RDSF,2,2
SFE,1013,2,HFLUX,1,%Q3%
SFE,1013,4,RDSF,1,0.5
SFE,1013,4,RDSF,2,1
SFE,1014,2,RDSF,1,0.72
SFE,1014,2,RDSF,2,2
SFE,1014,2,HFLUX,1,%Q3%
SFE,1014,4,RDSF,1,0.5
SFE,1014,4,RDSF,2,1
SFE,1015,2,RDSF,1,0.72
SFE,1015,2,RDSF,2,2
SFE,1015,2,HFLUX,1,%Q3%
SFE,1015,4,RDSF,1,0.5
SFE,1015,4,RDSF,2,1
SFE,1016,2,RDSF,1,0.72
SFE,1016,2,RDSF,2,2
SFE,1016,2,HFLUX,1,%Q3%
SFE,1016,4,RDSF,1,0.5
SFE,1016,4,RDSF,2,1
SFE,1017,2,RDSF,1,0.72
SFE,1017,2,RDSF,2,2
SFE,1017,2,HFLUX,1,%Q3%
SFE,1017,4,RDSF,1,0.5
SFE,1017,4,RDSF,2,1
SFE,1018,2,RDSF,1,0.72
SFE,1018,2,RDSF,2,2
SFE,1018,2,HFLUX,1,%Q3%
SFE,1018,4,RDSF,1,0.5
SFE,1018,4,RDSF,2,1
SFE,1019,2,RDSF,1,0.72
SFE,1019,2,RDSF,2,2
SFE,1019,2,HFLUX,1,%Q3%
SFE,1019,4,RDSF,1,0.5
SFE,1019,4,RDSF,2,1
SFE,1020,2,RDSF,1,0.72
SFE,1020,2,RDSF,2,2
SFE,1020,2,HFLUX,1,%Q3%
SFE,1020,4,RDSF,1,0.5
SFE,1020,4,RDSF,2,1
SFE,1021,2,RDSF,1,0.72
SFE,1021,2,RDSF,2,2
SFE,1021,2,HFLUX,1,%Q3%
SFE,1021,4,RDSF,1,0.5
SFE,1021,4,RDSF,2,1
SFE,1022,2,RDSF,1,0.72
SFE,1022,2,RDSF,2,2
SFE,1022,2,HFLUX,1,%Q3%
SFE,1023,2,RDSF,1,0.72
SFE,1023,2,RDSF,2,2
SFE,1023,2,HFLUX,1,%Q3%
SFE,1024,2,RDSF,1,0.72
SFE,1024,2,RDSF,2,2
SFE,1024,2,HFLUX,1,%Q3%
SFE,1024,3,RDSF,1,0.72
SFE,1024,3,RDSF,2,2
SFE,1024,3,HFLUX,1,%Q2%
SFE,1025,5,RDSF,1,0.72
SFE,1025,5,RDSF,2,2
SFE,1025,5,HFLUX,1,%Q1%
SFE,1027,3,RDSF,1,0.5
SFE,1027,3,RDSF,2,1
SFE,1028,5,RDSF,1,0.5
SFE,1028,5,RDSF,2,1
SFE,1030,3,RDSF,1,0.72
SFE,1030,3,RDSF,2,2
SFE,1030,3,HFLUX,1,%Q2%
SFE,1031,5,RDSF,1,0.72
SFE,1031,5,RDSF,2,2
SFE,1031,5,HFLUX,1,%Q1%
SFE,1032,4,RDSF,1,0.5
SFE,1032,4,RDSF,2,1
SFE,1033,3,RDSF,1,0.5
SFE,1033,3,RDSF,2,1
SFE,1033,4,RDSF,1,0.5
SFE,1033,4,RDSF,2,1
SFE,1034,4,RDSF,1,0.5
SFE,1034,4,RDSF,2,1
SFE,1034,5,RDSF,1,0.5
SFE,1034,5,RDSF,2,1
SFE,1035,4,RDSF,1,0.5
SFE,1035,4,RDSF,2,1
SFE,1036,3,RDSF,1,0.72
SFE,1036,3,RDSF,2,2
SFE,1036,3,HFLUX,1,%Q2%
SFE,1037,3,RDSF,1,0.5
SFE,1037,3,RDSF,2,1
SFE,1037,5,RDSF,1,0.72
SFE,1037,5,RDSF,2,2
SFE,1037,5,HFLUX,1,%Q1%
SFE,1038,3,RDSF,1,0.72
SFE,1038,3,RDSF,2,2
SFE,1038,3,HFLUX,1,%Q2%
SFE,1038,5,RDSF,1,0.5
SFE,1038,5,RDSF,2,1
SFE,1039,3,RDSF,1,0.5
SFE,1039,3,RDSF,2,1
SFE,1039,5,RDSF,1,0.72
SFE,1039,5,RDSF,2,2
SFE,1039,5,HFLUX,1,%Q1%
SFE,1040,2,RDSF,1,0.5
SFE,1040,2,RDSF,2,1
SFE,1040,3,RDSF,1,0.5
SFE,1040,3,RDSF,2,1
SFE,1040,4,RDSF,1,0.5
SFE,1040,4,RDSF,2,1
SFE,1040,5,RDSF,1,0.5
SFE,1040,5,RDSF,2,1
SFE,1041,2,RDSF,1,0.5
SFE,1041,2,RDSF,2,1
SFE,1041,3,RDSF,1,0.5
SFE,1041,3,RDSF,2,1
SFE,1041,4,RDSF,1,0.5
SFE,1041,4,RDSF,2,1
SFE,1041,5,RDSF,1,0.5
SFE,1041,5,RDSF,2,1
SFE,1042,3,RDSF,1,0.72
SFE,1042,3,RDSF,2,2
SFE,1042,3,HFLUX,1,%Q2%
SFE,1042,5,RDSF,1,0.5
SFE,1042,5,RDSF,2,1
SFE,1043,3,RDSF,1,0.5
SFE,1043,3,RDSF,2,1
SFE,1043,5,RDSF,1,0.72
SFE,1043,5,RDSF,2,2
SFE,1043,5,HFLUX,1,%Q1%
SFE,1044,3,RDSF,1,0.72
SFE,1044,3,RDSF,2,2
SFE,1044,3,HFLUX,1,%Q2%
SFE,1044,5,RDSF,1,0.5
SFE,1044,5,RDSF,2,1
SFE,1045,3,RDSF,1,0.5
SFE,1045,3,RDSF,2,1
SFE,1045,5,RDSF,1,0.72
SFE,1045,5,RDSF,2,2
SFE,1045,5,HFLUX,1,%Q1%
SFE,1046,2,RDSF,1,0.5
SFE,1046,2,RDSF,2,1
SFE,1046,5,RDSF,1,0.5
SFE,1046,5,RDSF,2,1
SFE,1046,6,RDSF,1,0.5
SFE,1046,6,RDSF,2,1
SFE,1047,2,RDSF,1,0.5
SFE,1047,2,RDSF,2,1
SFE,1047,6,RDSF,1,0.5
SFE,1047,6,RDSF,2,1
SFE,1048,2,RDSF,1,0.5
SFE,1048,2,RDSF,2,1
SFE,1048,6,RDSF,1,0.5
SFE,1048,6,RDSF,2,1
SFE,1049,2,RDSF,1,0.5
SFE,1049,2,RDSF,2,1
SFE,1049,3,RDSF,1,0.5
SFE,1049,3,RDSF,2,1
SFE,1049,6,RDSF,1,0.5
SFE,1049,6,RDSF,2,1
SFE,1050,3,RDSF,1,0.72
SFE,1050,3,RDSF,2,2
SFE,1050,3,HFLUX,1,%Q2%
SFE,1050,5,RDSF,1,0.5
SFE,1050,5,RDSF,2,1
SFE,1051,3,RDSF,1,0.5
SFE,1051,3,RDSF,2,1
SFE,1051,5,RDSF,1,0.72
SFE,1051,5,RDSF,2,2
SFE,1051,5,HFLUX,1,%Q1%
SFE,1052,5,RDSF,1,0.5
SFE,1052,5,RDSF,2,1
SFE,1052,6,RDSF,1,0.5
SFE,1052,6,RDSF,2,1
SFE,1053,6,RDSF,1,0.5
SFE,1053,6,RDSF,2,1
SFE,1054,6,RDSF,1,0.5
SFE,1054,6,RDSF,2,1
SFE,1055,3,RDSF,1,0.5
SFE,1055,3,RDSF,2,1
SFE,1055,6,RDSF,1,0.5
SFE,1055,6,RDSF,2,1
SFE,1056,3,RDSF,1,0.72
SFE,1056,3,RDSF,2,2
SFE,1056,3,HFLUX,1,%Q2%
SFE,1056,5,RDSF,1,0.5
SFE,1056,5,RDSF,2,1
SFE,1057,3,RDSF,1,0.5
SFE,1057,3,RDSF,2,1
SFE,1057,5,RDSF,1,0.72
SFE,1057,5,RDSF,2,2
SFE,1057,5,HFLUX,1,%Q1%
SFE,1058,5,RDSF,1,0.5
SFE,1058,5,RDSF,2,1
SFE,1058,6,RDSF,1,0.5
SFE,1058,6,RDSF,2,1
SFE,1059,6,RDSF,1,0.5
SFE,1059,6,RDSF,2,1
SFE,1060,6,RDSF,1,0.5
SFE,1060,6,RDSF,2,1
SFE,1061,3,RDSF,1,0.5
SFE,1061,3,RDSF,2,1
SFE,1061,6,RDSF,1,0.5
SFE,1061,6,RDSF,2,1
SFE,1062,3,RDSF,1,0.72
SFE,1062,3,RDSF,2,2
SFE,1062,3,HFLUX,1,%Q2%
SFE,1062,5,RDSF,1,0.5
SFE,1062,5,RDSF,2,1
SFE,1063,3,RDSF,1,0.5
SFE,1063,3,RDSF,2,1
SFE,1063,5,RDSF,1,0.72
SFE,1063,5,RDSF,2,2
SFE,1063,5,HFLUX,1,%Q1%
SFE,1064,4,RDSF,1,0.5
SFE,1064,4,RDSF,2,1
SFE,1064,5,RDSF,1,0.5
SFE,1064,5,RDSF,2,1
SFE,1064,6,RDSF,1,0.5
SFE,1064,6,RDSF,2,1
SFE,1065,4,RDSF,1,0.5
SFE,1065,4,RDSF,2,1
SFE,1065,6,RDSF,1,0.5
SFE,1065,6,RDSF,2,1
SFE,1066,4,RDSF,1,0.5
SFE,1066,4,RDSF,2,1
SFE,1066,6,RDSF,1,0.5
SFE,1066,6,RDSF,2,1
SFE,1067,3,RDSF,1,0.5
SFE,1067,3,RDSF,2,1
SFE,1067,4,RDSF,1,0.5
SFE,1067,4,RDSF,2,1
SFE,1067,6,RDSF,1,0.5
SFE,1067,6,RDSF,2,1
SFE,1068,3,RDSF,1,0.72
SFE,1068,3,RDSF,2,2
SFE,1068,3,HFLUX,1,%Q2%
SFE,1068,5,RDSF,1,0.5
SFE,1068,5,RDSF,2,1
SFE,1069,3,RDSF,1,0.5
SFE,1069,3,RDSF,2,1
SFE,1069,5,RDSF,1,0.72
SFE,1069,5,RDSF,2,2
SFE,1069,5,HFLUX,1,%Q1%
SFE,1070,3,RDSF,1,0.72
SFE,1070,3,RDSF,2,2
SFE,1070,3,HFLUX,1,%Q2%
SFE,1070,5,RDSF,1,0.5
SFE,1070,5,RDSF,2,1
SFE,1071,3,RDSF,1,0.5
SFE,1071,3,RDSF,2,1
SFE,1071,5,RDSF,1,0.72
SFE,1071,5,RDSF,2,2
SFE,1071,5,HFLUX,1,%Q1%
SFE,1072,2,RDSF,1,0.5
SFE,1072,2,RDSF,2,1
SFE,1072,3,RDSF,1,0.5
SFE,1072,3,RDSF,2,1
SFE,1072,4,RDSF,1,0.5
SFE,1072,4,RDSF,2,1
SFE,1072,5,RDSF,1,0.5
SFE,1072,5,RDSF,2,1
SFE,1073,2,RDSF,1,0.5
SFE,1073,2,RDSF,2,1
SFE,1073,3,RDSF,1,0.5
SFE,1073,3,RDSF,2,1
SFE,1073,4,RDSF,1,0.5
SFE,1073,4,RDSF,2,1
SFE,1073,5,RDSF,1,0.5
SFE,1073,5,RDSF,2,1
SFE,1074,3,RDSF,1,0.72
SFE,1074,3,RDSF,2,2
SFE,1074,3,HFLUX,1,%Q2%
SFE,1074,5,RDSF,1,0.5
SFE,1074,5,RDSF,2,1
SFE,1075,3,RDSF,1,0.5
SFE,1075,3,RDSF,2,1
SFE,1075,5,RDSF,1,0.72
SFE,1075,5,RDSF,2,2
SFE,1075,5,HFLUX,1,%Q1%
SFE,1076,3,RDSF,1,0.72
SFE,1076,3,RDSF,2,2
SFE,1076,3,HFLUX,1,%Q2%
SFE,1076,5,RDSF,1,0.5
SFE,1076,5,RDSF,2,1
SFE,1077,5,RDSF,1,0.72
SFE,1077,5,RDSF,2,2
SFE,1077,5,HFLUX,1,%Q1%
SFE,1078,2,RDSF,1,0.5
SFE,1078,2,RDSF,2,1
SFE,1079,2,RDSF,1,0.5
SFE,1079,2,RDSF,2,1
SFE,1079,3,RDSF,1,0.5
SFE,1079,3,RDSF,2,1
SFE,1080,2,RDSF,1,0.5
SFE,1080,2,RDSF,2,1
SFE,1080,5,RDSF,1,0.5
SFE,1080,5,RDSF,2,1
SFE,1081,2,RDSF,1,0.5
SFE,1081,2,RDSF,2,1
SFE,1082,3,RDSF,1,0.72
SFE,1082,3,RDSF,2,2
SFE,1082,3,HFLUX,1,%Q2%
SFE,1083,5,RDSF,1,0.72
SFE,1083,5,RDSF,2,2
SFE,1083,5,HFLUX,1,%Q1%
SFE,1085,3,RDSF,1,0.5
SFE,1085,3,RDSF,2,1
SFE,1086,5,RDSF,1,0.5
SFE,1086,5,RDSF,2,1
SFE,1088,3,RDSF,1,0.72
SFE,1088,3,RDSF,2,2
SFE,1088,3,HFLUX,1,%Q2%
SFE,1089,4,RDSF,1,0.72
SFE,1089,4,RDSF,2,2
SFE,1089,4,HFLUX,1,%Q4%
SFE,1089,5,RDSF,1,0.72
SFE,1089,5,RDSF,2,2
SFE,1089,5,HFLUX,1,%Q1%
SFE,1090,4,RDSF,1,0.72
SFE,1090,4,RDSF,2,2
SFE,1090,4,HFLUX,1,%Q4%
SFE,1091,4,RDSF,1,0.72
SFE,1091,4,RDSF,2,2
SFE,1091,4,HFLUX,1,%Q4%
SFE,1092,2,RDSF,1,0.5
SFE,1092,2,RDSF,2,1
SFE,1092,4,RDSF,1,0.72
SFE,1092,4,RDSF,2,2
SFE,1092,4,HFLUX,1,%Q4%
SFE,1093,2,RDSF,1,0.5
SFE,1093,2,RDSF,2,1
SFE,1093,4,RDSF,1,0.72
SFE,1093,4,RDSF,2,2
SFE,1093,4,HFLUX,1,%Q4%
SFE,1094,2,RDSF,1,0.5
SFE,1094,2,RDSF,2,1
SFE,1094,4,RDSF,1,0.72
SFE,1094,4,RDSF,2,2
SFE,1094,4,HFLUX,1,%Q4%
SFE,1095,2,RDSF,1,0.5
SFE,1095,2,RDSF,2,1
SFE,1095,4,RDSF,1,0.72
SFE,1095,4,RDSF,2,2
SFE,1095,4,HFLUX,1,%Q4%
SFE,1096,2,RDSF,1,0.5
SFE,1096,2,RDSF,2,1
SFE,1096,4,RDSF,1,0.72
SFE,1096,4,RDSF,2,2
SFE,1096,4,HFLUX,1,%Q4%
SFE,1097,2,RDSF,1,0.5
SFE,1097,2,RDSF,2,1
SFE,1097,4,RDSF,1,0.72
SFE,1097,4,RDSF,2,2
SFE,1097,4,HFLUX,1,%Q4%
SFE,1098,2,RDSF,1,0.5
SFE,1098,2,RDSF,2,1
SFE,1098,4,RDSF,1,0.72
SFE,1098,4,RDSF,2,2
SFE,1098,4,HFLUX,1,%Q4%
SFE,1099,2,RDSF,1,0.5
SFE,1099,2,RDSF,2,1
SFE,1099,4,RDSF,1,0.72
SFE,1099,4,RDSF,2,2
SFE,1099,4,HFLUX,1,%Q4%
SFE,1100,2,RDSF,1,0.5
SFE,1100,2,RDSF,2,1
SFE,1100,4,RDSF,1,0.72
SFE,1100,4,RDSF,2,2
SFE,1100,4,HFLUX,1,%Q4%
SFE,1101,2,RDSF,1,0.5
SFE,1101,2,RDSF,2,1
SFE,1101,4,RDSF,1,0.72
SFE,1101,4,RDSF,2,2
SFE,1101,4,HFLUX,1,%Q4%
SFE,1102,4,RDSF,1,0.72
SFE,1102,4,RDSF,2,2
SFE,1102,4,HFLUX,1,%Q4%
SFE,1103,4,RDSF,1,0.72
SFE,1103,4,RDSF,2,2
SFE,1103,4,HFLUX,1,%Q4%
SFE,1104,3,RDSF,1,0.72
SFE,1104,3,RDSF,2,2
SFE,1104,3,HFLUX,1,%Q2%
SFE,1104,4,RDSF,1,0.72
SFE,1104,4,RDSF,2,2
SFE,1104,4,HFLUX,1,%Q4%
SFE,1105,2,RDSF,1,0.72
SFE,1105,2,RDSF,2,2
SFE,1105,2,HFLUX,1,%Q3%
SFE,1105,5,RDSF,1,0.72
SFE,1105,5,RDSF,2,2
SFE,1105,5,HFLUX,1,%Q1%
SFE,1106,2,RDSF,1,0.72
SFE,1106,2,RDSF,2,2
SFE,1106,2,HFLUX,1,%Q3%
SFE,1107,2,RDSF,1,0.72
SFE,1107,2,RDSF,2,2
SFE,1107,2,HFLUX,1,%Q3%
SFE,1108,2,RDSF,1,0.72
SFE,1108,2,RDSF,2,2
SFE,1108,2,HFLUX,1,%Q3%
SFE,1108,4,RDSF,1,0.5
SFE,1108,4,RDSF,2,1
SFE,1109,2,RDSF,1,0.72
SFE,1109,2,RDSF,2,2
SFE,1109,2,HFLUX,1,%Q3%
SFE,1109,4,RDSF,1,0.5
SFE,1109,4,RDSF,2,1
SFE,1110,2,RDSF,1,0.72
SFE,1110,2,RDSF,2,2
SFE,1110,2,HFLUX,1,%Q3%
SFE,1110,4,RDSF,1,0.5
SFE,1110,4,RDSF,2,1
SFE,1111,2,RDSF,1,0.72
SFE,1111,2,RDSF,2,2
SFE,1111,2,HFLUX,1,%Q3%
SFE,1111,4,RDSF,1,0.5
SFE,1111,4,RDSF,2,1
SFE,1112,2,RDSF,1,0.72
SFE,1112,2,RDSF,2,2
SFE,1112,2,HFLUX,1,%Q3%
SFE,1112,4,RDSF,1,0.5
SFE,1112,4,RDSF,2,1
SFE,1113,2,RDSF,1,0.72
SFE,1113,2,RDSF,2,2
SFE,1113,2,HFLUX,1,%Q3%
SFE,1113,4,RDSF,1,0.5
SFE,1113,4,RDSF,2,1
SFE,1114,2,RDSF,1,0.72
SFE,1114,2,RDSF,2,2
SFE,1114,2,HFLUX,1,%Q3%
SFE,1114,4,RDSF,1,0.5
SFE,1114,4,RDSF,2,1
SFE,1115,2,RDSF,1,0.72
SFE,1115,2,RDSF,2,2
SFE,1115,2,HFLUX,1,%Q3%
SFE,1115,4,RDSF,1,0.5
SFE,1115,4,RDSF,2,1
SFE,1116,2,RDSF,1,0.72
SFE,1116,2,RDSF,2,2
SFE,1116,2,HFLUX,1,%Q3%
SFE,1116,4,RDSF,1,0.5
SFE,1116,4,RDSF,2,1
SFE,1117,2,RDSF,1,0.72
SFE,1117,2,RDSF,2,2
SFE,1117,2,HFLUX,1,%Q3%
SFE,1117,4,RDSF,1,0.5
SFE,1117,4,RDSF,2,1
SFE,1118,2,RDSF,1,0.72
SFE,1118,2,RDSF,2,2
SFE,1118,2,HFLUX,1,%Q3%
SFE,1119,2,RDSF,1,0.72
SFE,1119,2,RDSF,2,2
SFE,1119,2,HFLUX,1,%Q3%
SFE,1120,2,RDSF,1,0.72
SFE,1120,2,RDSF,2,2
SFE,1120,2,HFLUX,1,%Q3%
SFE,1120,3,RDSF,1,0.72
SFE,1120,3,RDSF,2,2
SFE,1120,3,HFLUX,1,%Q2%
SFE,1121,5,RDSF,1,0.72
SFE,1121,5,RDSF,2,2
SFE,1121,5,HFLUX,1,%Q1%
SFE,1123,3,RDSF,1,0.5
SFE,1123,3,RDSF,2,1
SFE,1124,5,RDSF,1,0.5
SFE,1124,5,RDSF,2,1
SFE,1126,3,RDSF,1,0.72
SFE,1126,3,RDSF,2,2
SFE,1126,3,HFLUX,1,%Q2%
SFE,1127,5,RDSF,1,0.72
SFE,1127,5,RDSF,2,2
SFE,1127,5,HFLUX,1,%Q1%
SFE,1128,4,RDSF,1,0.5
SFE,1128,4,RDSF,2,1
SFE,1129,3,RDSF,1,0.5
SFE,1129,3,RDSF,2,1
SFE,1129,4,RDSF,1,0.5
SFE,1129,4,RDSF,2,1
SFE,1130,4,RDSF,1,0.5
SFE,1130,4,RDSF,2,1
SFE,1130,5,RDSF,1,0.5
SFE,1130,5,RDSF,2,1
SFE,1131,4,RDSF,1,0.5
SFE,1131,4,RDSF,2,1
SFE,1132,3,RDSF,1,0.72
SFE,1132,3,RDSF,2,2
SFE,1132,3,HFLUX,1,%Q2%
SFE,1133,3,RDSF,1,0.5
SFE,1133,3,RDSF,2,1
SFE,1133,5,RDSF,1,0.72
SFE,1133,5,RDSF,2,2
SFE,1133,5,HFLUX,1,%Q1%
SFE,1134,3,RDSF,1,0.72
SFE,1134,3,RDSF,2,2
SFE,1134,3,HFLUX,1,%Q2%
SFE,1134,5,RDSF,1,0.5
SFE,1134,5,RDSF,2,1
SFE,1135,3,RDSF,1,0.5
SFE,1135,3,RDSF,2,1
SFE,1135,5,RDSF,1,0.72
SFE,1135,5,RDSF,2,2
SFE,1135,5,HFLUX,1,%Q1%
SFE,1136,2,RDSF,1,0.5
SFE,1136,2,RDSF,2,1
SFE,1136,3,RDSF,1,0.5
SFE,1136,3,RDSF,2,1
SFE,1136,4,RDSF,1,0.5
SFE,1136,4,RDSF,2,1
SFE,1136,5,RDSF,1,0.5
SFE,1136,5,RDSF,2,1
SFE,1137,2,RDSF,1,0.5
SFE,1137,2,RDSF,2,1
SFE,1137,3,RDSF,1,0.5
SFE,1137,3,RDSF,2,1
SFE,1137,4,RDSF,1,0.5
SFE,1137,4,RDSF,2,1
SFE,1137,5,RDSF,1,0.5
SFE,1137,5,RDSF,2,1
SFE,1138,3,RDSF,1,0.72
SFE,1138,3,RDSF,2,2
SFE,1138,3,HFLUX,1,%Q2%
SFE,1138,5,RDSF,1,0.5
SFE,1138,5,RDSF,2,1
SFE,1139,3,RDSF,1,0.5
SFE,1139,3,RDSF,2,1
SFE,1139,5,RDSF,1,0.72
SFE,1139,5,RDSF,2,2
SFE,1139,5,HFLUX,1,%Q1%
SFE,1140,3,RDSF,1,0.72
SFE,1140,3,RDSF,2,2
SFE,1140,3,HFLUX,1,%Q2%
SFE,1140,5,RDSF,1,0.5
SFE,1140,5,RDSF,2,1
SFE,1141,3,RDSF,1,0.5
SFE,1141,3,RDSF,2,1
SFE,1141,5,RDSF,1,0.72
SFE,1141,5,RDSF,2,2
SFE,1141,5,HFLUX,1,%Q1%
SFE,1142,3,RDSF,1,0.72
SFE,1142,3,RDSF,2,2
SFE,1142,3,HFLUX,1,%Q2%
SFE,1142,5,RDSF,1,0.5
SFE,1142,5,RDSF,2,1
SFE,1143,3,RDSF,1,0.5
SFE,1143,3,RDSF,2,1
SFE,1143,5,RDSF,1,0.72
SFE,1143,5,RDSF,2,2
SFE,1143,5,HFLUX,1,%Q1%
SFE,1144,3,RDSF,1,0.72
SFE,1144,3,RDSF,2,2
SFE,1144,3,HFLUX,1,%Q2%
SFE,1144,5,RDSF,1,0.5
SFE,1144,5,RDSF,2,1
SFE,1145,3,RDSF,1,0.5
SFE,1145,3,RDSF,2,1
SFE,1145,5,RDSF,1,0.72
SFE,1145,5,RDSF,2,2
SFE,1145,5,HFLUX,1,%Q1%
SFE,1146,3,RDSF,1,0.72
SFE,1146,3,RDSF,2,2
SFE,1146,3,HFLUX,1,%Q2%
SFE,1146,5,RDSF,1,0.5
SFE,1146,5,RDSF,2,1
SFE,1147,3,RDSF,1,0.5
SFE,1147,3,RDSF,2,1
SFE,1147,5,RDSF,1,0.72
SFE,1147,5,RDSF,2,2
SFE,1147,5,HFLUX,1,%Q1%
SFE,1148,3,RDSF,1,0.72
SFE,1148,3,RDSF,2,2
SFE,1148,3,HFLUX,1,%Q2%
SFE,1148,5,RDSF,1,0.5
SFE,1148,5,RDSF,2,1
SFE,1149,3,RDSF,1,0.5
SFE,1149,3,RDSF,2,1
SFE,1149,5,RDSF,1,0.72
SFE,1149,5,RDSF,2,2
SFE,1149,5,HFLUX,1,%Q1%
SFE,1150,3,RDSF,1,0.72
SFE,1150,3,RDSF,2,2
SFE,1150,3,HFLUX,1,%Q2%
SFE,1150,5,RDSF,1,0.5
SFE,1150,5,RDSF,2,1
SFE,1151,3,RDSF,1,0.5
SFE,1151,3,RDSF,2,1
SFE,1151,5,RDSF,1,0.72
SFE,1151,5,RDSF,2,2
SFE,1151,5,HFLUX,1,%Q1%
SFE,1152,2,RDSF,1,0.5
SFE,1152,2,RDSF,2,1
SFE,1152,3,RDSF,1,0.5
SFE,1152,3,RDSF,2,1
SFE,1152,4,RDSF,1,0.5
SFE,1152,4,RDSF,2,1
SFE,1152,5,RDSF,1,0.5
SFE,1152,5,RDSF,2,1
SFE,1153,2,RDSF,1,0.5
SFE,1153,2,RDSF,2,1
SFE,1153,3,RDSF,1,0.5
SFE,1153,3,RDSF,2,1
SFE,1153,4,RDSF,1,0.5
SFE,1153,4,RDSF,2,1
SFE,1153,5,RDSF,1,0.5
SFE,1153,5,RDSF,2,1
SFE,1154,3,RDSF,1,0.72
SFE,1154,3,RDSF,2,2
SFE,1154,3,HFLUX,1,%Q2%
SFE,1154,5,RDSF,1,0.5
SFE,1154,5,RDSF,2,1
SFE,1155,3,RDSF,1,0.5
SFE,1155,3,RDSF,2,1
SFE,1155,5,RDSF,1,0.72
SFE,1155,5,RDSF,2,2
SFE,1155,5,HFLUX,1,%Q1%
SFE,1156,3,RDSF,1,0.72
SFE,1156,3,RDSF,2,2
SFE,1156,3,HFLUX,1,%Q2%
SFE,1156,5,RDSF,1,0.5
SFE,1156,5,RDSF,2,1
SFE,1157,5,RDSF,1,0.72
SFE,1157,5,RDSF,2,2
SFE,1157,5,HFLUX,1,%Q1%
SFE,1158,2,RDSF,1,0.5
SFE,1158,2,RDSF,2,1
SFE,1159,2,RDSF,1,0.5
SFE,1159,2,RDSF,2,1
SFE,1159,3,RDSF,1,0.5
SFE,1159,3,RDSF,2,1
SFE,1160,2,RDSF,1,0.5
SFE,1160,2,RDSF,2,1
SFE,1160,5,RDSF,1,0.5
SFE,1160,5,RDSF,2,1
SFE,1161,2,RDSF,1,0.5
SFE,1161,2,RDSF,2,1
SFE,1162,3,RDSF,1,0.72
SFE,1162,3,RDSF,2,2
SFE,1162,3,HFLUX,1,%Q2%
SFE,1163,5,RDSF,1,0.72
SFE,1163,5,RDSF,2,2
SFE,1163,5,HFLUX,1,%Q1%
SFE,1165,3,RDSF,1,0.5
SFE,1165,3,RDSF,2,1
SFE,1166,5,RDSF,1,0.5
SFE,1166,5,RDSF,2,1
SFE,1168,3,RDSF,1,0.72
SFE,1168,3,RDSF,2,2
SFE,1168,3,HFLUX,1,%Q2%
SFE,1169,4,RDSF,1,0.72
SFE,1169,4,RDSF,2,2
SFE,1169,4,HFLUX,1,%Q4%
SFE,1169,5,RDSF,1,0.72
SFE,1169,5,RDSF,2,2
SFE,1169,5,HFLUX,1,%Q1%
SFE,1170,4,RDSF,1,0.72
SFE,1170,4,RDSF,2,2
SFE,1170,4,HFLUX,1,%Q4%
SFE,1171,4,RDSF,1,0.72
SFE,1171,4,RDSF,2,2
SFE,1171,4,HFLUX,1,%Q4%
SFE,1172,2,RDSF,1,0.5
SFE,1172,2,RDSF,2,1
SFE,1172,4,RDSF,1,0.72
SFE,1172,4,RDSF,2,2
SFE,1172,4,HFLUX,1,%Q4%
SFE,1173,2,RDSF,1,0.5
SFE,1173,2,RDSF,2,1
SFE,1173,4,RDSF,1,0.72
SFE,1173,4,RDSF,2,2
SFE,1173,4,HFLUX,1,%Q4%
SFE,1174,2,RDSF,1,0.5
SFE,1174,2,RDSF,2,1
SFE,1174,4,RDSF,1,0.72
SFE,1174,4,RDSF,2,2
SFE,1174,4,HFLUX,1,%Q4%
SFE,1175,2,RDSF,1,0.5
SFE,1175,2,RDSF,2,1
SFE,1175,4,RDSF,1,0.72
SFE,1175,4,RDSF,2,2
SFE,1175,4,HFLUX,1,%Q4%
SFE,1176,2,RDSF,1,0.5
SFE,1176,2,RDSF,2,1
SFE,1176,4,RDSF,1,0.72
SFE,1176,4,RDSF,2,2
SFE,1176,4,HFLUX,1,%Q4%
SFE,1177,2,RDSF,1,0.5
SFE,1177,2,RDSF,2,1
SFE,1177,4,RDSF,1,0.72
SFE,1177,4,RDSF,2,2
SFE,1177,4,HFLUX,1,%Q4%
SFE,1178,2,RDSF,1,0.5
SFE,1178,2,RDSF,2,1
SFE,1178,4,RDSF,1,0.72
SFE,1178,4,RDSF,2,2
SFE,1178,4,HFLUX,1,%Q4%
SFE,1179,2,RDSF,1,0.5
SFE,1179,2,RDSF,2,1
SFE,1179,4,RDSF,1,0.72
SFE,1179,4,RDSF,2,2
SFE,1179,4,HFLUX,1,%Q4%
SFE,1180,2,RDSF,1,0.5
SFE,1180,2,RDSF,2,1
SFE,1180,4,RDSF,1,0.72
SFE,1180,4,RDSF,2,2
SFE,1180,4,HFLUX,1,%Q4%
SFE,1181,2,RDSF,1,0.5
SFE,1181,2,RDSF,2,1
SFE,1181,4,RDSF,1,0.72
SFE,1181,4,RDSF,2,2
SFE,1181,4,HFLUX,1,%Q4%
SFE,1182,4,RDSF,1,0.72
SFE,1182,4,RDSF,2,2
SFE,1182,4,HFLUX,1,%Q4%
SFE,1183,4,RDSF,1,0.72
SFE,1183,4,RDSF,2,2
SFE,1183,4,HFLUX,1,%Q4%
SFE,1184,3,RDSF,1,0.72
SFE,1184,3,RDSF,2,2
SFE,1184,3,HFLUX,1,%Q2%
SFE,1184,4,RDSF,1,0.72
SFE,1184,4,RDSF,2,2
SFE,1184,4,HFLUX,1,%Q4%
SFE,1185,2,RDSF,1,0.72
SFE,1185,2,RDSF,2,2
SFE,1185,2,HFLUX,1,%Q3%
SFE,1185,5,RDSF,1,0.72
SFE,1185,5,RDSF,2,2
SFE,1185,5,HFLUX,1,%Q1%
SFE,1186,2,RDSF,1,0.72
SFE,1186,2,RDSF,2,2
SFE,1186,2,HFLUX,1,%Q3%
SFE,1187,2,RDSF,1,0.72
SFE,1187,2,RDSF,2,2
SFE,1187,2,HFLUX,1,%Q3%
SFE,1188,2,RDSF,1,0.72
SFE,1188,2,RDSF,2,2
SFE,1188,2,HFLUX,1,%Q3%
SFE,1188,4,RDSF,1,0.5
SFE,1188,4,RDSF,2,1
SFE,1189,2,RDSF,1,0.72
SFE,1189,2,RDSF,2,2
SFE,1189,2,HFLUX,1,%Q3%
SFE,1189,4,RDSF,1,0.5
SFE,1189,4,RDSF,2,1
SFE,1190,2,RDSF,1,0.72
SFE,1190,2,RDSF,2,2
SFE,1190,2,HFLUX,1,%Q3%
SFE,1190,4,RDSF,1,0.5
SFE,1190,4,RDSF,2,1
SFE,1191,2,RDSF,1,0.72
SFE,1191,2,RDSF,2,2
SFE,1191,2,HFLUX,1,%Q3%
SFE,1191,4,RDSF,1,0.5
SFE,1191,4,RDSF,2,1
SFE,1192,2,RDSF,1,0.72
SFE,1192,2,RDSF,2,2
SFE,1192,2,HFLUX,1,%Q3%
SFE,1192,4,RDSF,1,0.5
SFE,1192,4,RDSF,2,1
SFE,1193,2,RDSF,1,0.72
SFE,1193,2,RDSF,2,2
SFE,1193,2,HFLUX,1,%Q3%
SFE,1193,4,RDSF,1,0.5
SFE,1193,4,RDSF,2,1
SFE,1194,2,RDSF,1,0.72
SFE,1194,2,RDSF,2,2
SFE,1194,2,HFLUX,1,%Q3%
SFE,1194,4,RDSF,1,0.5
SFE,1194,4,RDSF,2,1
SFE,1195,2,RDSF,1,0.72
SFE,1195,2,RDSF,2,2
SFE,1195,2,HFLUX,1,%Q3%
SFE,1195,4,RDSF,1,0.5
SFE,1195,4,RDSF,2,1
SFE,1196,2,RDSF,1,0.72
SFE,1196,2,RDSF,2,2
SFE,1196,2,HFLUX,1,%Q3%
SFE,1196,4,RDSF,1,0.5
SFE,1196,4,RDSF,2,1
SFE,1197,2,RDSF,1,0.72
SFE,1197,2,RDSF,2,2
SFE,1197,2,HFLUX,1,%Q3%
SFE,1197,4,RDSF,1,0.5
SFE,1197,4,RDSF,2,1
SFE,1198,2,RDSF,1,0.72
SFE,1198,2,RDSF,2,2
SFE,1198,2,HFLUX,1,%Q3%
SFE,1199,2,RDSF,1,0.72
SFE,1199,2,RDSF,2,2
SFE,1199,2,HFLUX,1,%Q3%
SFE,1200,2,RDSF,1,0.72
SFE,1200,2,RDSF,2,2
SFE,1200,2,HFLUX,1,%Q3%
SFE,1200,3,RDSF,1,0.72
SFE,1200,3,RDSF,2,2
SFE,1200,3,HFLUX,1,%Q2%
SFE,1201,5,RDSF,1,0.72
SFE,1201,5,RDSF,2,2
SFE,1201,5,HFLUX,1,%Q1%
SFE,1203,3,RDSF,1,0.5
SFE,1203,3,RDSF,2,1
SFE,1204,5,RDSF,1,0.5
SFE,1204,5,RDSF,2,1
SFE,1206,3,RDSF,1,0.72
SFE,1206,3,RDSF,2,2
SFE,1206,3,HFLUX,1,%Q2%
SFE,1207,5,RDSF,1,0.72
SFE,1207,5,RDSF,2,2
SFE,1207,5,HFLUX,1,%Q1%
SFE,1208,4,RDSF,1,0.5
SFE,1208,4,RDSF,2,1
SFE,1210,1,RDSF,1,0.5
SFE,1210,1,RDSF,2,1
SFE,1210,2,RDSF,1,0.5
SFE,1210,2,RDSF,2,1
SFE,1210,6,RDSF,1,0.5
SFE,1210,6,RDSF,2,1
SFE,1211,1,RDSF,1,0.5
SFE,1211,1,RDSF,2,1
SFE,1211,2,RDSF,1,0.5
SFE,1211,2,RDSF,2,1
SFE,1211,6,RDSF,1,0.5
SFE,1211,6,RDSF,2,1
SFE,1212,1,RDSF,1,0.5
SFE,1212,1,RDSF,2,1
SFE,1212,2,RDSF,1,0.5
SFE,1212,2,RDSF,2,1
SFE,1212,6,RDSF,1,0.5
SFE,1212,6,RDSF,2,1
SFE,1213,1,RDSF,1,0.5
SFE,1213,1,RDSF,2,1
SFE,1213,2,RDSF,1,0.5
SFE,1213,2,RDSF,2,1
SFE,1213,6,RDSF,1,0.5
SFE,1213,6,RDSF,2,1
SFE,1214,1,RDSF,1,0.5
SFE,1214,1,RDSF,2,1
SFE,1214,2,RDSF,1,0.5
SFE,1214,2,RDSF,2,1
SFE,1214,6,RDSF,1,0.5
SFE,1214,6,RDSF,2,1
SFE,1215,1,RDSF,1,0.5
SFE,1215,1,RDSF,2,1
SFE,1215,2,RDSF,1,0.5
SFE,1215,2,RDSF,2,1
SFE,1215,6,RDSF,1,0.5
SFE,1215,6,RDSF,2,1
SFE,1216,1,RDSF,1,0.5
SFE,1216,1,RDSF,2,1
SFE,1216,2,RDSF,1,0.5
SFE,1216,2,RDSF,2,1
SFE,1216,6,RDSF,1,0.5
SFE,1216,6,RDSF,2,1
SFE,1217,1,RDSF,1,0.5
SFE,1217,1,RDSF,2,1
SFE,1217,2,RDSF,1,0.5
SFE,1217,2,RDSF,2,1
SFE,1217,6,RDSF,1,0.5
SFE,1217,6,RDSF,2,1
SFE,1218,1,RDSF,1,0.5
SFE,1218,1,RDSF,2,1
SFE,1218,2,RDSF,1,0.5
SFE,1218,2,RDSF,2,1
SFE,1218,6,RDSF,1,0.5
SFE,1218,6,RDSF,2,1
SFE,1219,1,RDSF,1,0.5
SFE,1219,1,RDSF,2,1
SFE,1219,2,RDSF,1,0.5
SFE,1219,2,RDSF,2,1
SFE,1219,6,RDSF,1,0.5
SFE,1219,6,RDSF,2,1
SFE,1221,4,RDSF,1,0.5
SFE,1221,4,RDSF,2,1
SFE,1222,3,RDSF,1,0.72
SFE,1222,3,RDSF,2,2
SFE,1222,3,HFLUX,1,%Q2%
SFE,1223,3,RDSF,1,0.5
SFE,1223,3,RDSF,2,1
SFE,1223,5,RDSF,1,0.72
SFE,1223,5,RDSF,2,2
SFE,1223,5,HFLUX,1,%Q1%
SFE,1224,1,RDSF,1,0.5
SFE,1224,1,RDSF,2,1
SFE,1224,5,RDSF,1,0.5
SFE,1224,5,RDSF,2,1
SFE,1224,6,RDSF,1,0.5
SFE,1224,6,RDSF,2,1
SFE,1225,1,RDSF,1,0.5
SFE,1225,1,RDSF,2,1
SFE,1225,6,RDSF,1,0.5
SFE,1225,6,RDSF,2,1
SFE,1226,1,RDSF,1,0.5
SFE,1226,1,RDSF,2,1
SFE,1226,6,RDSF,1,0.5
SFE,1226,6,RDSF,2,1
SFE,1227,1,RDSF,1,0.5
SFE,1227,1,RDSF,2,1
SFE,1227,6,RDSF,1,0.5
SFE,1227,6,RDSF,2,1
SFE,1228,1,RDSF,1,0.5
SFE,1228,1,RDSF,2,1
SFE,1228,6,RDSF,1,0.5
SFE,1228,6,RDSF,2,1
SFE,1229,1,RDSF,1,0.5
SFE,1229,1,RDSF,2,1
SFE,1229,6,RDSF,1,0.5
SFE,1229,6,RDSF,2,1
SFE,1230,1,RDSF,1,0.5
SFE,1230,1,RDSF,2,1
SFE,1230,6,RDSF,1,0.5
SFE,1230,6,RDSF,2,1
SFE,1231,1,RDSF,1,0.5
SFE,1231,1,RDSF,2,1
SFE,1231,6,RDSF,1,0.5
SFE,1231,6,RDSF,2,1
SFE,1232,1,RDSF,1,0.5
SFE,1232,1,RDSF,2,1
SFE,1232,6,RDSF,1,0.5
SFE,1232,6,RDSF,2,1
SFE,1233,1,RDSF,1,0.5
SFE,1233,1,RDSF,2,1
SFE,1233,6,RDSF,1,0.5
SFE,1233,6,RDSF,2,1
SFE,1234,1,RDSF,1,0.5
SFE,1234,1,RDSF,2,1
SFE,1234,6,RDSF,1,0.5
SFE,1234,6,RDSF,2,1
SFE,1235,1,RDSF,1,0.5
SFE,1235,1,RDSF,2,1
SFE,1235,3,RDSF,1,0.5
SFE,1235,3,RDSF,2,1
SFE,1235,6,RDSF,1,0.5
SFE,1235,6,RDSF,2,1
SFE,1236,3,RDSF,1,0.72
SFE,1236,3,RDSF,2,2
SFE,1236,3,HFLUX,1,%Q2%
SFE,1236,5,RDSF,1,0.5
SFE,1236,5,RDSF,2,1
SFE,1237,3,RDSF,1,0.5
SFE,1237,3,RDSF,2,1
SFE,1237,5,RDSF,1,0.72
SFE,1237,5,RDSF,2,2
SFE,1237,5,HFLUX,1,%Q1%
SFE,1238,1,RDSF,1,0.5
SFE,1238,1,RDSF,2,1
SFE,1238,5,RDSF,1,0.5
SFE,1238,5,RDSF,2,1
SFE,1238,6,RDSF,1,0.5
SFE,1238,6,RDSF,2,1
SFE,1239,1,RDSF,1,0.5
SFE,1239,1,RDSF,2,1
SFE,1239,6,RDSF,1,0.5
SFE,1239,6,RDSF,2,1
SFE,1241,1,RDSF,1,0.5
SFE,1241,1,RDSF,2,1
SFE,1241,6,RDSF,1,0.5
SFE,1241,6,RDSF,2,1
SFE,1242,1,RDSF,1,0.5
SFE,1242,1,RDSF,2,1
SFE,1242,6,RDSF,1,0.5
SFE,1242,6,RDSF,2,1
SFE,1243,1,RDSF,1,0.5
SFE,1243,1,RDSF,2,1
SFE,1243,6,RDSF,1,0.5
SFE,1243,6,RDSF,2,1
SFE,1244,1,RDSF,1,0.5
SFE,1244,1,RDSF,2,1
SFE,1244,6,RDSF,1,0.5
SFE,1244,6,RDSF,2,1
SFE,1245,1,RDSF,1,0.5
SFE,1245,1,RDSF,2,1
SFE,1245,6,RDSF,1,0.5
SFE,1245,6,RDSF,2,1
SFE,1246,1,RDSF,1,0.5
SFE,1246,1,RDSF,2,1
SFE,1246,6,RDSF,1,0.5
SFE,1246,6,RDSF,2,1
SFE,1248,1,RDSF,1,0.5
SFE,1248,1,RDSF,2,1
SFE,1248,6,RDSF,1,0.5
SFE,1248,6,RDSF,2,1
SFE,1249,1,RDSF,1,0.5
SFE,1249,1,RDSF,2,1
SFE,1249,3,RDSF,1,0.5
SFE,1249,3,RDSF,2,1
SFE,1249,6,RDSF,1,0.5
SFE,1249,6,RDSF,2,1
SFE,1250,3,RDSF,1,0.72
SFE,1250,3,RDSF,2,2
SFE,1250,3,HFLUX,1,%Q2%
SFE,1250,5,RDSF,1,0.5
SFE,1250,5,RDSF,2,1
SFE,1251,3,RDSF,1,0.5
SFE,1251,3,RDSF,2,1
SFE,1251,5,RDSF,1,0.72
SFE,1251,5,RDSF,2,2
SFE,1251,5,HFLUX,1,%Q1%
SFE,1252,1,RDSF,1,0.5
SFE,1252,1,RDSF,2,1
SFE,1252,5,RDSF,1,0.5
SFE,1252,5,RDSF,2,1
SFE,1252,6,RDSF,1,0.5
SFE,1252,6,RDSF,2,1
SFE,1253,1,RDSF,1,0.5
SFE,1253,1,RDSF,2,1
SFE,1253,6,RDSF,1,0.5
SFE,1253,6,RDSF,2,1
SFE,1254,1,RDSF,1,0.5
SFE,1254,1,RDSF,2,1
SFE,1254,6,RDSF,1,0.5
SFE,1254,6,RDSF,2,1
SFE,1255,1,RDSF,1,0.5
SFE,1255,1,RDSF,2,1
SFE,1255,6,RDSF,1,0.5
SFE,1255,6,RDSF,2,1
SFE,1256,1,RDSF,1,0.5
SFE,1256,1,RDSF,2,1
SFE,1256,6,RDSF,1,0.5
SFE,1256,6,RDSF,2,1
SFE,1257,1,RDSF,1,0.5
SFE,1257,1,RDSF,2,1
SFE,1257,6,RDSF,1,0.5
SFE,1257,6,RDSF,2,1
SFE,1258,1,RDSF,1,0.5
SFE,1258,1,RDSF,2,1
SFE,1258,6,RDSF,1,0.5
SFE,1258,6,RDSF,2,1
SFE,1259,1,RDSF,1,0.5
SFE,1259,1,RDSF,2,1
SFE,1259,6,RDSF,1,0.5
SFE,1259,6,RDSF,2,1
SFE,1260,1,RDSF,1,0.5
SFE,1260,1,RDSF,2,1
SFE,1260,6,RDSF,1,0.5
SFE,1260,6,RDSF,2,1
SFE,1261,1,RDSF,1,0.5
SFE,1261,1,RDSF,2,1
SFE,1261,6,RDSF,1,0.5
SFE,1261,6,RDSF,2,1
SFE,1262,1,RDSF,1,0.5
SFE,1262,1,RDSF,2,1
SFE,1262,6,RDSF,1,0.5
SFE,1262,6,RDSF,2,1
SFE,1263,1,RDSF,1,0.5
SFE,1263,1,RDSF,2,1
SFE,1263,3,RDSF,1,0.5
SFE,1263,3,RDSF,2,1
SFE,1263,6,RDSF,1,0.5
SFE,1263,6,RDSF,2,1
SFE,1264,3,RDSF,1,0.72
SFE,1264,3,RDSF,2,2
SFE,1264,3,HFLUX,1,%Q2%
SFE,1264,5,RDSF,1,0.5
SFE,1264,5,RDSF,2,1
SFE,1265,3,RDSF,1,0.5
SFE,1265,3,RDSF,2,1
SFE,1265,5,RDSF,1,0.72
SFE,1265,5,RDSF,2,2
SFE,1265,5,HFLUX,1,%Q1%
SFE,1266,1,RDSF,1,0.5
SFE,1266,1,RDSF,2,1
SFE,1266,5,RDSF,1,0.5
SFE,1266,5,RDSF,2,1
SFE,1266,6,RDSF,1,0.5
SFE,1266,6,RDSF,2,1
SFE,1267,1,RDSF,1,0.5
SFE,1267,1,RDSF,2,1
SFE,1267,6,RDSF,1,0.5
SFE,1267,6,RDSF,2,1
SFE,1268,1,RDSF,1,0.5
SFE,1268,1,RDSF,2,1
SFE,1268,6,RDSF,1,0.5
SFE,1268,6,RDSF,2,1
SFE,1269,1,RDSF,1,0.5
SFE,1269,1,RDSF,2,1
SFE,1269,6,RDSF,1,0.5
SFE,1269,6,RDSF,2,1
SFE,1270,1,RDSF,1,0.5
SFE,1270,1,RDSF,2,1
SFE,1270,6,RDSF,1,0.5
SFE,1270,6,RDSF,2,1
SFE,1271,1,RDSF,1,0.5
SFE,1271,1,RDSF,2,1
SFE,1271,6,RDSF,1,0.5
SFE,1271,6,RDSF,2,1
SFE,1272,1,RDSF,1,0.5
SFE,1272,1,RDSF,2,1
SFE,1272,6,RDSF,1,0.5
SFE,1272,6,RDSF,2,1
SFE,1273,1,RDSF,1,0.5
SFE,1273,1,RDSF,2,1
SFE,1273,6,RDSF,1,0.5
SFE,1273,6,RDSF,2,1
SFE,1274,1,RDSF,1,0.5
SFE,1274,1,RDSF,2,1
SFE,1274,6,RDSF,1,0.5
SFE,1274,6,RDSF,2,1
SFE,1275,1,RDSF,1,0.5
SFE,1275,1,RDSF,2,1
SFE,1275,6,RDSF,1,0.5
SFE,1275,6,RDSF,2,1
SFE,1276,1,RDSF,1,0.5
SFE,1276,1,RDSF,2,1
SFE,1276,6,RDSF,1,0.5
SFE,1276,6,RDSF,2,1
SFE,1277,1,RDSF,1,0.5
SFE,1277,1,RDSF,2,1
SFE,1277,3,RDSF,1,0.5
SFE,1277,3,RDSF,2,1
SFE,1277,6,RDSF,1,0.5
SFE,1277,6,RDSF,2,1
SFE,1278,3,RDSF,1,0.72
SFE,1278,3,RDSF,2,2
SFE,1278,3,HFLUX,1,%Q2%
SFE,1278,5,RDSF,1,0.5
SFE,1278,5,RDSF,2,1
SFE,1279,3,RDSF,1,0.5
SFE,1279,3,RDSF,2,1
SFE,1279,5,RDSF,1,0.72
SFE,1279,5,RDSF,2,2
SFE,1279,5,HFLUX,1,%Q1%
SFE,1280,1,RDSF,1,0.5
SFE,1280,1,RDSF,2,1
SFE,1280,5,RDSF,1,0.5
SFE,1280,5,RDSF,2,1
SFE,1280,6,RDSF,1,0.5
SFE,1280,6,RDSF,2,1
SFE,1281,1,RDSF,1,0.5
SFE,1281,1,RDSF,2,1
SFE,1281,6,RDSF,1,0.5
SFE,1281,6,RDSF,2,1
SFE,1282,1,RDSF,1,0.5
SFE,1282,1,RDSF,2,1
SFE,1282,6,RDSF,1,0.5
SFE,1282,6,RDSF,2,1
SFE,1283,1,RDSF,1,0.5
SFE,1283,1,RDSF,2,1
SFE,1283,6,RDSF,1,0.5
SFE,1283,6,RDSF,2,1
SFE,1284,1,RDSF,1,0.5
SFE,1284,1,RDSF,2,1
SFE,1284,6,RDSF,1,0.5
SFE,1284,6,RDSF,2,1
SFE,1285,1,RDSF,1,0.5
SFE,1285,1,RDSF,2,1
SFE,1285,6,RDSF,1,0.5
SFE,1285,6,RDSF,2,1
SFE,1286,1,RDSF,1,0.5
SFE,1286,1,RDSF,2,1
SFE,1286,6,RDSF,1,0.5
SFE,1286,6,RDSF,2,1
SFE,1287,1,RDSF,1,0.5
SFE,1287,1,RDSF,2,1
SFE,1287,6,RDSF,1,0.5
SFE,1287,6,RDSF,2,1
SFE,1288,1,RDSF,1,0.5
SFE,1288,1,RDSF,2,1
SFE,1288,6,RDSF,1,0.5
SFE,1288,6,RDSF,2,1
SFE,1289,1,RDSF,1,0.5
SFE,1289,1,RDSF,2,1
SFE,1289,6,RDSF,1,0.5
SFE,1289,6,RDSF,2,1
SFE,1290,1,RDSF,1,0.5
SFE,1290,1,RDSF,2,1
SFE,1290,6,RDSF,1,0.5
SFE,1290,6,RDSF,2,1
SFE,1291,1,RDSF,1,0.5
SFE,1291,1,RDSF,2,1
SFE,1291,3,RDSF,1,0.5
SFE,1291,3,RDSF,2,1
SFE,1291,6,RDSF,1,0.5
SFE,1291,6,RDSF,2,1
SFE,1292,3,RDSF,1,0.72
SFE,1292,3,RDSF,2,2
SFE,1292,3,HFLUX,1,%Q2%
SFE,1292,5,RDSF,1,0.5
SFE,1292,5,RDSF,2,1
SFE,1293,3,RDSF,1,0.5
SFE,1293,3,RDSF,2,1
SFE,1293,5,RDSF,1,0.72
SFE,1293,5,RDSF,2,2
SFE,1293,5,HFLUX,1,%Q1%
SFE,1294,1,RDSF,1,0.5
SFE,1294,1,RDSF,2,1
SFE,1294,5,RDSF,1,0.5
SFE,1294,5,RDSF,2,1
SFE,1294,6,RDSF,1,0.5
SFE,1294,6,RDSF,2,1
SFE,1295,1,RDSF,1,0.5
SFE,1295,1,RDSF,2,1
SFE,1295,6,RDSF,1,0.5
SFE,1295,6,RDSF,2,1
SFE,1296,1,RDSF,1,0.5
SFE,1296,1,RDSF,2,1
SFE,1296,6,RDSF,1,0.5
SFE,1296,6,RDSF,2,1
SFE,1297,1,RDSF,1,0.5
SFE,1297,1,RDSF,2,1
SFE,1297,6,RDSF,1,0.5
SFE,1297,6,RDSF,2,1
SFE,1298,1,RDSF,1,0.5
SFE,1298,1,RDSF,2,1
SFE,1298,6,RDSF,1,0.5
SFE,1298,6,RDSF,2,1
SFE,1299,1,RDSF,1,0.5
SFE,1299,1,RDSF,2,1
SFE,1299,6,RDSF,1,0.5
SFE,1299,6,RDSF,2,1
SFE,1300,1,RDSF,1,0.5
SFE,1300,1,RDSF,2,1
SFE,1300,6,RDSF,1,0.5
SFE,1300,6,RDSF,2,1
SFE,1301,1,RDSF,1,0.5
SFE,1301,1,RDSF,2,1
SFE,1301,6,RDSF,1,0.5
SFE,1301,6,RDSF,2,1
SFE,1302,1,RDSF,1,0.5
SFE,1302,1,RDSF,2,1
SFE,1302,6,RDSF,1,0.5
SFE,1302,6,RDSF,2,1
SFE,1303,1,RDSF,1,0.5
SFE,1303,1,RDSF,2,1
SFE,1303,6,RDSF,1,0.5
SFE,1303,6,RDSF,2,1
SFE,1304,1,RDSF,1,0.5
SFE,1304,1,RDSF,2,1
SFE,1304,6,RDSF,1,0.5
SFE,1304,6,RDSF,2,1
SFE,1305,1,RDSF,1,0.5
SFE,1305,1,RDSF,2,1
SFE,1305,3,RDSF,1,0.5
SFE,1305,3,RDSF,2,1
SFE,1305,6,RDSF,1,0.5
SFE,1305,6,RDSF,2,1
SFE,1306,3,RDSF,1,0.72
SFE,1306,3,RDSF,2,2
SFE,1306,3,HFLUX,1,%Q2%
SFE,1306,5,RDSF,1,0.5
SFE,1306,5,RDSF,2,1
SFE,1307,3,RDSF,1,0.5
SFE,1307,3,RDSF,2,1
SFE,1307,5,RDSF,1,0.72
SFE,1307,5,RDSF,2,2
SFE,1307,5,HFLUX,1,%Q1%
SFE,1308,1,RDSF,1,0.5
SFE,1308,1,RDSF,2,1
SFE,1308,5,RDSF,1,0.5
SFE,1308,5,RDSF,2,1
SFE,1308,6,RDSF,1,0.5
SFE,1308,6,RDSF,2,1
SFE,1309,1,RDSF,1,0.5
SFE,1309,1,RDSF,2,1
SFE,1309,6,RDSF,1,0.5
SFE,1309,6,RDSF,2,1
SFE,1310,1,RDSF,1,0.5
SFE,1310,1,RDSF,2,1
SFE,1310,6,RDSF,1,0.5
SFE,1310,6,RDSF,2,1
SFE,1311,1,RDSF,1,0.5
SFE,1311,1,RDSF,2,1
SFE,1311,6,RDSF,1,0.5
SFE,1311,6,RDSF,2,1
SFE,1312,1,RDSF,1,0.5
SFE,1312,1,RDSF,2,1
SFE,1312,6,RDSF,1,0.5
SFE,1312,6,RDSF,2,1
SFE,1313,1,RDSF,1,0.5
SFE,1313,1,RDSF,2,1
SFE,1313,6,RDSF,1,0.5
SFE,1313,6,RDSF,2,1
SFE,1314,1,RDSF,1,0.5
SFE,1314,1,RDSF,2,1
SFE,1314,6,RDSF,1,0.5
SFE,1314,6,RDSF,2,1
SFE,1315,1,RDSF,1,0.5
SFE,1315,1,RDSF,2,1
SFE,1315,6,RDSF,1,0.5
SFE,1315,6,RDSF,2,1
SFE,1316,1,RDSF,1,0.5
SFE,1316,1,RDSF,2,1
SFE,1316,6,RDSF,1,0.5
SFE,1316,6,RDSF,2,1
SFE,1317,1,RDSF,1,0.5
SFE,1317,1,RDSF,2,1
SFE,1317,6,RDSF,1,0.5
SFE,1317,6,RDSF,2,1
SFE,1318,1,RDSF,1,0.5
SFE,1318,1,RDSF,2,1
SFE,1318,6,RDSF,1,0.5
SFE,1318,6,RDSF,2,1
SFE,1319,1,RDSF,1,0.5
SFE,1319,1,RDSF,2,1
SFE,1319,3,RDSF,1,0.5
SFE,1319,3,RDSF,2,1
SFE,1319,6,RDSF,1,0.5
SFE,1319,6,RDSF,2,1
SFE,1320,3,RDSF,1,0.72
SFE,1320,3,RDSF,2,2
SFE,1320,3,HFLUX,1,%Q2%
SFE,1320,5,RDSF,1,0.5
SFE,1320,5,RDSF,2,1
SFE,1321,3,RDSF,1,0.5
SFE,1321,3,RDSF,2,1
SFE,1321,5,RDSF,1,0.72
SFE,1321,5,RDSF,2,2
SFE,1321,5,HFLUX,1,%Q1%
SFE,1322,1,RDSF,1,0.5
SFE,1322,1,RDSF,2,1
SFE,1322,5,RDSF,1,0.5
SFE,1322,5,RDSF,2,1
SFE,1322,6,RDSF,1,0.5
SFE,1322,6,RDSF,2,1
SFE,1323,1,RDSF,1,0.5
SFE,1323,1,RDSF,2,1
SFE,1323,6,RDSF,1,0.5
SFE,1323,6,RDSF,2,1
SFE,1324,1,RDSF,1,0.5
SFE,1324,1,RDSF,2,1
SFE,1324,6,RDSF,1,0.5
SFE,1324,6,RDSF,2,1
SFE,1325,1,RDSF,1,0.5
SFE,1325,1,RDSF,2,1
SFE,1325,6,RDSF,1,0.5
SFE,1325,6,RDSF,2,1
SFE,1326,1,RDSF,1,0.5
SFE,1326,1,RDSF,2,1
SFE,1326,6,RDSF,1,0.5
SFE,1326,6,RDSF,2,1
SFE,1327,1,RDSF,1,0.5
SFE,1327,1,RDSF,2,1
SFE,1327,6,RDSF,1,0.5
SFE,1327,6,RDSF,2,1
SFE,1328,1,RDSF,1,0.5
SFE,1328,1,RDSF,2,1
SFE,1328,6,RDSF,1,0.5
SFE,1328,6,RDSF,2,1
SFE,1329,1,RDSF,1,0.5
SFE,1329,1,RDSF,2,1
SFE,1329,6,RDSF,1,0.5
SFE,1329,6,RDSF,2,1
SFE,1330,1,RDSF,1,0.5
SFE,1330,1,RDSF,2,1
SFE,1330,6,RDSF,1,0.5
SFE,1330,6,RDSF,2,1
SFE,1331,1,RDSF,1,0.5
SFE,1331,1,RDSF,2,1
SFE,1331,6,RDSF,1,0.5
SFE,1331,6,RDSF,2,1
SFE,1332,1,RDSF,1,0.5
SFE,1332,1,RDSF,2,1
SFE,1332,6,RDSF,1,0.5
SFE,1332,6,RDSF,2,1
SFE,1333,1,RDSF,1,0.5
SFE,1333,1,RDSF,2,1
SFE,1333,3,RDSF,1,0.5
SFE,1333,3,RDSF,2,1
SFE,1333,6,RDSF,1,0.5
SFE,1333,6,RDSF,2,1
SFE,1334,3,RDSF,1,0.72
SFE,1334,3,RDSF,2,2
SFE,1334,3,HFLUX,1,%Q2%
SFE,1334,5,RDSF,1,0.5
SFE,1334,5,RDSF,2,1
SFE,1335,3,RDSF,1,0.5
SFE,1335,3,RDSF,2,1
SFE,1335,5,RDSF,1,0.72
SFE,1335,5,RDSF,2,2
SFE,1335,5,HFLUX,1,%Q1%
SFE,1336,1,RDSF,1,0.5
SFE,1336,1,RDSF,2,1
SFE,1336,5,RDSF,1,0.5
SFE,1336,5,RDSF,2,1
SFE,1336,6,RDSF,1,0.5
SFE,1336,6,RDSF,2,1
SFE,1337,1,RDSF,1,0.5
SFE,1337,1,RDSF,2,1
SFE,1337,6,RDSF,1,0.5
SFE,1337,6,RDSF,2,1
SFE,1339,1,RDSF,1,0.5
SFE,1339,1,RDSF,2,1
SFE,1339,6,RDSF,1,0.5
SFE,1339,6,RDSF,2,1
SFE,1340,1,RDSF,1,0.5
SFE,1340,1,RDSF,2,1
SFE,1340,6,RDSF,1,0.5
SFE,1340,6,RDSF,2,1
SFE,1341,1,RDSF,1,0.5
SFE,1341,1,RDSF,2,1
SFE,1341,6,RDSF,1,0.5
SFE,1341,6,RDSF,2,1
SFE,1342,1,RDSF,1,0.5
SFE,1342,1,RDSF,2,1
SFE,1342,6,RDSF,1,0.5
SFE,1342,6,RDSF,2,1
SFE,1343,1,RDSF,1,0.5
SFE,1343,1,RDSF,2,1
SFE,1343,6,RDSF,1,0.5
SFE,1343,6,RDSF,2,1
SFE,1344,1,RDSF,1,0.5
SFE,1344,1,RDSF,2,1
SFE,1344,6,RDSF,1,0.5
SFE,1344,6,RDSF,2,1
SFE,1346,1,RDSF,1,0.5
SFE,1346,1,RDSF,2,1
SFE,1346,6,RDSF,1,0.5
SFE,1346,6,RDSF,2,1
SFE,1347,1,RDSF,1,0.5
SFE,1347,1,RDSF,2,1
SFE,1347,3,RDSF,1,0.5
SFE,1347,3,RDSF,2,1
SFE,1347,6,RDSF,1,0.5
SFE,1347,6,RDSF,2,1
SFE,1348,3,RDSF,1,0.72
SFE,1348,3,RDSF,2,2
SFE,1348,3,HFLUX,1,%Q2%
SFE,1348,5,RDSF,1,0.5
SFE,1348,5,RDSF,2,1
SFE,1349,3,RDSF,1,0.5
SFE,1349,3,RDSF,2,1
SFE,1349,5,RDSF,1,0.72
SFE,1349,5,RDSF,2,2
SFE,1349,5,HFLUX,1,%Q1%
SFE,1350,1,RDSF,1,0.5
SFE,1350,1,RDSF,2,1
SFE,1350,5,RDSF,1,0.5
SFE,1350,5,RDSF,2,1
SFE,1350,6,RDSF,1,0.5
SFE,1350,6,RDSF,2,1
SFE,1351,1,RDSF,1,0.5
SFE,1351,1,RDSF,2,1
SFE,1351,6,RDSF,1,0.5
SFE,1351,6,RDSF,2,1
SFE,1352,1,RDSF,1,0.5
SFE,1352,1,RDSF,2,1
SFE,1352,6,RDSF,1,0.5
SFE,1352,6,RDSF,2,1
SFE,1353,1,RDSF,1,0.5
SFE,1353,1,RDSF,2,1
SFE,1353,6,RDSF,1,0.5
SFE,1353,6,RDSF,2,1
SFE,1354,1,RDSF,1,0.5
SFE,1354,1,RDSF,2,1
SFE,1354,6,RDSF,1,0.5
SFE,1354,6,RDSF,2,1
SFE,1355,1,RDSF,1,0.5
SFE,1355,1,RDSF,2,1
SFE,1355,6,RDSF,1,0.5
SFE,1355,6,RDSF,2,1
SFE,1356,1,RDSF,1,0.5
SFE,1356,1,RDSF,2,1
SFE,1356,6,RDSF,1,0.5
SFE,1356,6,RDSF,2,1
SFE,1357,1,RDSF,1,0.5
SFE,1357,1,RDSF,2,1
SFE,1357,6,RDSF,1,0.5
SFE,1357,6,RDSF,2,1
SFE,1358,1,RDSF,1,0.5
SFE,1358,1,RDSF,2,1
SFE,1358,6,RDSF,1,0.5
SFE,1358,6,RDSF,2,1
SFE,1359,1,RDSF,1,0.5
SFE,1359,1,RDSF,2,1
SFE,1359,6,RDSF,1,0.5
SFE,1359,6,RDSF,2,1
SFE,1360,1,RDSF,1,0.5
SFE,1360,1,RDSF,2,1
SFE,1360,6,RDSF,1,0.5
SFE,1360,6,RDSF,2,1
SFE,1361,1,RDSF,1,0.5
SFE,1361,1,RDSF,2,1
SFE,1361,3,RDSF,1,0.5
SFE,1361,3,RDSF,2,1
SFE,1361,6,RDSF,1,0.5
SFE,1361,6,RDSF,2,1
SFE,1362,3,RDSF,1,0.72
SFE,1362,3,RDSF,2,2
SFE,1362,3,HFLUX,1,%Q2%
SFE,1362,5,RDSF,1,0.5
SFE,1362,5,RDSF,2,1
SFE,1363,5,RDSF,1,0.72
SFE,1363,5,RDSF,2,2
SFE,1363,5,HFLUX,1,%Q1%
SFE,1364,2,RDSF,1,0.5
SFE,1364,2,RDSF,2,1
SFE,1366,1,RDSF,1,0.5
SFE,1366,1,RDSF,2,1
SFE,1366,4,RDSF,1,0.5
SFE,1366,4,RDSF,2,1
SFE,1366,6,RDSF,1,0.5
SFE,1366,6,RDSF,2,1
SFE,1367,1,RDSF,1,0.5
SFE,1367,1,RDSF,2,1
SFE,1367,4,RDSF,1,0.5
SFE,1367,4,RDSF,2,1
SFE,1367,6,RDSF,1,0.5
SFE,1367,6,RDSF,2,1
SFE,1368,1,RDSF,1,0.5
SFE,1368,1,RDSF,2,1
SFE,1368,4,RDSF,1,0.5
SFE,1368,4,RDSF,2,1
SFE,1368,6,RDSF,1,0.5
SFE,1368,6,RDSF,2,1
SFE,1369,1,RDSF,1,0.5
SFE,1369,1,RDSF,2,1
SFE,1369,4,RDSF,1,0.5
SFE,1369,4,RDSF,2,1
SFE,1369,6,RDSF,1,0.5
SFE,1369,6,RDSF,2,1
SFE,1370,1,RDSF,1,0.5
SFE,1370,1,RDSF,2,1
SFE,1370,4,RDSF,1,0.5
SFE,1370,4,RDSF,2,1
SFE,1370,6,RDSF,1,0.5
SFE,1370,6,RDSF,2,1
SFE,1371,1,RDSF,1,0.5
SFE,1371,1,RDSF,2,1
SFE,1371,4,RDSF,1,0.5
SFE,1371,4,RDSF,2,1
SFE,1371,6,RDSF,1,0.5
SFE,1371,6,RDSF,2,1
SFE,1372,1,RDSF,1,0.5
SFE,1372,1,RDSF,2,1
SFE,1372,4,RDSF,1,0.5
SFE,1372,4,RDSF,2,1
SFE,1372,6,RDSF,1,0.5
SFE,1372,6,RDSF,2,1
SFE,1373,1,RDSF,1,0.5
SFE,1373,1,RDSF,2,1
SFE,1373,4,RDSF,1,0.5
SFE,1373,4,RDSF,2,1
SFE,1373,6,RDSF,1,0.5
SFE,1373,6,RDSF,2,1
SFE,1374,1,RDSF,1,0.5
SFE,1374,1,RDSF,2,1
SFE,1374,4,RDSF,1,0.5
SFE,1374,4,RDSF,2,1
SFE,1374,6,RDSF,1,0.5
SFE,1374,6,RDSF,2,1
SFE,1375,1,RDSF,1,0.5
SFE,1375,1,RDSF,2,1
SFE,1375,4,RDSF,1,0.5
SFE,1375,4,RDSF,2,1
SFE,1375,6,RDSF,1,0.5
SFE,1375,6,RDSF,2,1
SFE,1377,2,RDSF,1,0.5
SFE,1377,2,RDSF,2,1
SFE,1378,3,RDSF,1,0.72
SFE,1378,3,RDSF,2,2
SFE,1378,3,HFLUX,1,%Q2%
SFE,1379,5,RDSF,1,0.72
SFE,1379,5,RDSF,2,2
SFE,1379,5,HFLUX,1,%Q1%
SFE,1381,3,RDSF,1,0.5
SFE,1381,3,RDSF,2,1
SFE,1382,5,RDSF,1,0.5
SFE,1382,5,RDSF,2,1
SFE,1384,3,RDSF,1,0.72
SFE,1384,3,RDSF,2,2
SFE,1384,3,HFLUX,1,%Q2%
SFE,1385,4,RDSF,1,0.72
SFE,1385,4,RDSF,2,2
SFE,1385,4,HFLUX,1,%Q4%
SFE,1385,5,RDSF,1,0.72
SFE,1385,5,RDSF,2,2
SFE,1385,5,HFLUX,1,%Q1%
SFE,1386,4,RDSF,1,0.72
SFE,1386,4,RDSF,2,2
SFE,1386,4,HFLUX,1,%Q4%
SFE,1387,4,RDSF,1,0.72
SFE,1387,4,RDSF,2,2
SFE,1387,4,HFLUX,1,%Q4%
SFE,1388,2,RDSF,1,0.5
SFE,1388,2,RDSF,2,1
SFE,1388,4,RDSF,1,0.72
SFE,1388,4,RDSF,2,2
SFE,1388,4,HFLUX,1,%Q4%
SFE,1389,2,RDSF,1,0.5
SFE,1389,2,RDSF,2,1
SFE,1389,4,RDSF,1,0.72
SFE,1389,4,RDSF,2,2
SFE,1389,4,HFLUX,1,%Q4%
SFE,1390,2,RDSF,1,0.5
SFE,1390,2,RDSF,2,1
SFE,1390,4,RDSF,1,0.72
SFE,1390,4,RDSF,2,2
SFE,1390,4,HFLUX,1,%Q4%
SFE,1391,2,RDSF,1,0.5
SFE,1391,2,RDSF,2,1
SFE,1391,4,RDSF,1,0.72
SFE,1391,4,RDSF,2,2
SFE,1391,4,HFLUX,1,%Q4%
SFE,1392,2,RDSF,1,0.5
SFE,1392,2,RDSF,2,1
SFE,1392,4,RDSF,1,0.72
SFE,1392,4,RDSF,2,2
SFE,1392,4,HFLUX,1,%Q4%
SFE,1393,2,RDSF,1,0.5
SFE,1393,2,RDSF,2,1
SFE,1393,4,RDSF,1,0.72
SFE,1393,4,RDSF,2,2
SFE,1393,4,HFLUX,1,%Q4%
SFE,1394,2,RDSF,1,0.5
SFE,1394,2,RDSF,2,1
SFE,1394,4,RDSF,1,0.72
SFE,1394,4,RDSF,2,2
SFE,1394,4,HFLUX,1,%Q4%
SFE,1395,2,RDSF,1,0.5
SFE,1395,2,RDSF,2,1
SFE,1395,4,RDSF,1,0.72
SFE,1395,4,RDSF,2,2
SFE,1395,4,HFLUX,1,%Q4%
SFE,1396,2,RDSF,1,0.5
SFE,1396,2,RDSF,2,1
SFE,1396,4,RDSF,1,0.72
SFE,1396,4,RDSF,2,2
SFE,1396,4,HFLUX,1,%Q4%
SFE,1397,2,RDSF,1,0.5
SFE,1397,2,RDSF,2,1
SFE,1397,4,RDSF,1,0.72
SFE,1397,4,RDSF,2,2
SFE,1397,4,HFLUX,1,%Q4%
SFE,1398,4,RDSF,1,0.72
SFE,1398,4,RDSF,2,2
SFE,1398,4,HFLUX,1,%Q4%
SFE,1399,4,RDSF,1,0.72
SFE,1399,4,RDSF,2,2
SFE,1399,4,HFLUX,1,%Q4%
SFE,1400,3,RDSF,1,0.72
SFE,1400,3,RDSF,2,2
SFE,1400,3,HFLUX,1,%Q2%
SFE,1400,4,RDSF,1,0.72
SFE,1400,4,RDSF,2,2
SFE,1400,4,HFLUX,1,%Q4%
SFE,1401,2,RDSF,1,0.72
SFE,1401,2,RDSF,2,2
SFE,1401,2,HFLUX,1,%Q3%
SFE,1401,5,RDSF,1,0.72
SFE,1401,5,RDSF,2,2
SFE,1401,5,HFLUX,1,%Q1%
SFE,1402,2,RDSF,1,0.72
SFE,1402,2,RDSF,2,2
SFE,1402,2,HFLUX,1,%Q3%
SFE,1403,2,RDSF,1,0.72
SFE,1403,2,RDSF,2,2
SFE,1403,2,HFLUX,1,%Q3%
SFE,1404,2,RDSF,1,0.72
SFE,1404,2,RDSF,2,2
SFE,1404,2,HFLUX,1,%Q3%
SFE,1404,4,RDSF,1,0.5
SFE,1404,4,RDSF,2,1
SFE,1405,2,RDSF,1,0.72
SFE,1405,2,RDSF,2,2
SFE,1405,2,HFLUX,1,%Q3%
SFE,1405,4,RDSF,1,0.5
SFE,1405,4,RDSF,2,1
SFE,1406,2,RDSF,1,0.72
SFE,1406,2,RDSF,2,2
SFE,1406,2,HFLUX,1,%Q3%
SFE,1406,4,RDSF,1,0.5
SFE,1406,4,RDSF,2,1
SFE,1407,2,RDSF,1,0.72
SFE,1407,2,RDSF,2,2
SFE,1407,2,HFLUX,1,%Q3%
SFE,1407,4,RDSF,1,0.5
SFE,1407,4,RDSF,2,1
SFE,1408,2,RDSF,1,0.72
SFE,1408,2,RDSF,2,2
SFE,1408,2,HFLUX,1,%Q3%
SFE,1408,4,RDSF,1,0.5
SFE,1408,4,RDSF,2,1
SFE,1409,2,RDSF,1,0.72
SFE,1409,2,RDSF,2,2
SFE,1409,2,HFLUX,1,%Q3%
SFE,1409,4,RDSF,1,0.5
SFE,1409,4,RDSF,2,1
SFE,1410,2,RDSF,1,0.72
SFE,1410,2,RDSF,2,2
SFE,1410,2,HFLUX,1,%Q3%
SFE,1410,4,RDSF,1,0.5
SFE,1410,4,RDSF,2,1
SFE,1411,2,RDSF,1,0.72
SFE,1411,2,RDSF,2,2
SFE,1411,2,HFLUX,1,%Q3%
SFE,1411,4,RDSF,1,0.5
SFE,1411,4,RDSF,2,1
SFE,1412,2,RDSF,1,0.72
SFE,1412,2,RDSF,2,2
SFE,1412,2,HFLUX,1,%Q3%
SFE,1412,4,RDSF,1,0.5
SFE,1412,4,RDSF,2,1
SFE,1413,2,RDSF,1,0.72
SFE,1413,2,RDSF,2,2
SFE,1413,2,HFLUX,1,%Q3%
SFE,1413,4,RDSF,1,0.5
SFE,1413,4,RDSF,2,1
SFE,1414,2,RDSF,1,0.72
SFE,1414,2,RDSF,2,2
SFE,1414,2,HFLUX,1,%Q3%
SFE,1415,2,RDSF,1,0.72
SFE,1415,2,RDSF,2,2
SFE,1415,2,HFLUX,1,%Q3%
SFE,1416,2,RDSF,1,0.72
SFE,1416,2,RDSF,2,2
SFE,1416,2,HFLUX,1,%Q3%
SFE,1416,3,RDSF,1,0.72
SFE,1416,3,RDSF,2,2
SFE,1416,3,HFLUX,1,%Q2%
SFE,1417,5,RDSF,1,0.72
SFE,1417,5,RDSF,2,2
SFE,1417,5,HFLUX,1,%Q1%
SFE,1419,3,RDSF,1,0.5
SFE,1419,3,RDSF,2,1
SFE,1420,5,RDSF,1,0.5
SFE,1420,5,RDSF,2,1
SFE,1422,3,RDSF,1,0.72
SFE,1422,3,RDSF,2,2
SFE,1422,3,HFLUX,1,%Q2%
SFE,1423,5,RDSF,1,0.72
SFE,1423,5,RDSF,2,2
SFE,1423,5,HFLUX,1,%Q1%
SFE,1424,4,RDSF,1,0.5
SFE,1424,4,RDSF,2,1
SFE,1425,3,RDSF,1,0.5
SFE,1425,3,RDSF,2,1
SFE,1425,4,RDSF,1,0.5
SFE,1425,4,RDSF,2,1
SFE,1426,4,RDSF,1,0.5
SFE,1426,4,RDSF,2,1
SFE,1426,5,RDSF,1,0.5
SFE,1426,5,RDSF,2,1
SFE,1427,4,RDSF,1,0.5
SFE,1427,4,RDSF,2,1
SFE,1428,3,RDSF,1,0.72
SFE,1428,3,RDSF,2,2
SFE,1428,3,HFLUX,1,%Q2%
SFE,1429,3,RDSF,1,0.5
SFE,1429,3,RDSF,2,1
SFE,1429,5,RDSF,1,0.72
SFE,1429,5,RDSF,2,2
SFE,1429,5,HFLUX,1,%Q1%
SFE,1430,3,RDSF,1,0.72
SFE,1430,3,RDSF,2,2
SFE,1430,3,HFLUX,1,%Q2%
SFE,1430,5,RDSF,1,0.5
SFE,1430,5,RDSF,2,1
SFE,1431,3,RDSF,1,0.5
SFE,1431,3,RDSF,2,1
SFE,1431,5,RDSF,1,0.72
SFE,1431,5,RDSF,2,2
SFE,1431,5,HFLUX,1,%Q1%
SFE,1432,2,RDSF,1,0.5
SFE,1432,2,RDSF,2,1
SFE,1432,3,RDSF,1,0.5
SFE,1432,3,RDSF,2,1
SFE,1432,4,RDSF,1,0.5
SFE,1432,4,RDSF,2,1
SFE,1432,5,RDSF,1,0.5
SFE,1432,5,RDSF,2,1
SFE,1433,2,RDSF,1,0.5
SFE,1433,2,RDSF,2,1
SFE,1433,3,RDSF,1,0.5
SFE,1433,3,RDSF,2,1
SFE,1433,4,RDSF,1,0.5
SFE,1433,4,RDSF,2,1
SFE,1433,5,RDSF,1,0.5
SFE,1433,5,RDSF,2,1
SFE,1434,3,RDSF,1,0.72
SFE,1434,3,RDSF,2,2
SFE,1434,3,HFLUX,1,%Q2%
SFE,1434,5,RDSF,1,0.5
SFE,1434,5,RDSF,2,1
SFE,1435,3,RDSF,1,0.5
SFE,1435,3,RDSF,2,1
SFE,1435,5,RDSF,1,0.72
SFE,1435,5,RDSF,2,2
SFE,1435,5,HFLUX,1,%Q1%
SFE,1436,3,RDSF,1,0.72
SFE,1436,3,RDSF,2,2
SFE,1436,3,HFLUX,1,%Q2%
SFE,1436,5,RDSF,1,0.5
SFE,1436,5,RDSF,2,1
SFE,1437,3,RDSF,1,0.5
SFE,1437,3,RDSF,2,1
SFE,1437,5,RDSF,1,0.72
SFE,1437,5,RDSF,2,2
SFE,1437,5,HFLUX,1,%Q1%
SFE,1438,3,RDSF,1,0.72
SFE,1438,3,RDSF,2,2
SFE,1438,3,HFLUX,1,%Q2%
SFE,1438,5,RDSF,1,0.5
SFE,1438,5,RDSF,2,1
SFE,1439,3,RDSF,1,0.5
SFE,1439,3,RDSF,2,1
SFE,1439,5,RDSF,1,0.72
SFE,1439,5,RDSF,2,2
SFE,1439,5,HFLUX,1,%Q1%
SFE,1440,3,RDSF,1,0.72
SFE,1440,3,RDSF,2,2
SFE,1440,3,HFLUX,1,%Q2%
SFE,1440,5,RDSF,1,0.5
SFE,1440,5,RDSF,2,1
SFE,1441,3,RDSF,1,0.5
SFE,1441,3,RDSF,2,1
SFE,1441,5,RDSF,1,0.72
SFE,1441,5,RDSF,2,2
SFE,1441,5,HFLUX,1,%Q1%
SFE,1442,3,RDSF,1,0.72
SFE,1442,3,RDSF,2,2
SFE,1442,3,HFLUX,1,%Q2%
SFE,1442,5,RDSF,1,0.5
SFE,1442,5,RDSF,2,1
SFE,1443,3,RDSF,1,0.5
SFE,1443,3,RDSF,2,1
SFE,1443,5,RDSF,1,0.72
SFE,1443,5,RDSF,2,2
SFE,1443,5,HFLUX,1,%Q1%
SFE,1444,3,RDSF,1,0.72
SFE,1444,3,RDSF,2,2
SFE,1444,3,HFLUX,1,%Q2%
SFE,1444,5,RDSF,1,0.5
SFE,1444,5,RDSF,2,1
SFE,1445,3,RDSF,1,0.5
SFE,1445,3,RDSF,2,1
SFE,1445,5,RDSF,1,0.72
SFE,1445,5,RDSF,2,2
SFE,1445,5,HFLUX,1,%Q1%
SFE,1446,3,RDSF,1,0.72
SFE,1446,3,RDSF,2,2
SFE,1446,3,HFLUX,1,%Q2%
SFE,1446,5,RDSF,1,0.5
SFE,1446,5,RDSF,2,1
SFE,1447,3,RDSF,1,0.5
SFE,1447,3,RDSF,2,1
SFE,1447,5,RDSF,1,0.72
SFE,1447,5,RDSF,2,2
SFE,1447,5,HFLUX,1,%Q1%
SFE,1448,2,RDSF,1,0.5
SFE,1448,2,RDSF,2,1
SFE,1448,3,RDSF,1,0.5
SFE,1448,3,RDSF,2,1
SFE,1448,4,RDSF,1,0.5
SFE,1448,4,RDSF,2,1
SFE,1448,5,RDSF,1,0.5
SFE,1448,5,RDSF,2,1
SFE,1449,2,RDSF,1,0.5
SFE,1449,2,RDSF,2,1
SFE,1449,3,RDSF,1,0.5
SFE,1449,3,RDSF,2,1
SFE,1449,4,RDSF,1,0.5
SFE,1449,4,RDSF,2,1
SFE,1449,5,RDSF,1,0.5
SFE,1449,5,RDSF,2,1
SFE,1450,3,RDSF,1,0.72
SFE,1450,3,RDSF,2,2
SFE,1450,3,HFLUX,1,%Q2%
SFE,1450,5,RDSF,1,0.5
SFE,1450,5,RDSF,2,1
SFE,1451,3,RDSF,1,0.5
SFE,1451,3,RDSF,2,1
SFE,1451,5,RDSF,1,0.72
SFE,1451,5,RDSF,2,2
SFE,1451,5,HFLUX,1,%Q1%
SFE,1452,3,RDSF,1,0.72
SFE,1452,3,RDSF,2,2
SFE,1452,3,HFLUX,1,%Q2%
SFE,1452,5,RDSF,1,0.5
SFE,1452,5,RDSF,2,1
SFE,1453,5,RDSF,1,0.72
SFE,1453,5,RDSF,2,2
SFE,1453,5,HFLUX,1,%Q1%
SFE,1454,2,RDSF,1,0.5
SFE,1454,2,RDSF,2,1
SFE,1455,2,RDSF,1,0.5
SFE,1455,2,RDSF,2,1
SFE,1455,3,RDSF,1,0.5
SFE,1455,3,RDSF,2,1
SFE,1456,2,RDSF,1,0.5
SFE,1456,2,RDSF,2,1
SFE,1456,5,RDSF,1,0.5
SFE,1456,5,RDSF,2,1
SFE,1457,2,RDSF,1,0.5
SFE,1457,2,RDSF,2,1
SFE,1458,3,RDSF,1,0.72
SFE,1458,3,RDSF,2,2
SFE,1458,3,HFLUX,1,%Q2%
SFE,1459,5,RDSF,1,0.72
SFE,1459,5,RDSF,2,2
SFE,1459,5,HFLUX,1,%Q1%
SFE,1461,3,RDSF,1,0.5
SFE,1461,3,RDSF,2,1
SFE,1462,5,RDSF,1,0.5
SFE,1462,5,RDSF,2,1
SFE,1464,3,RDSF,1,0.72
SFE,1464,3,RDSF,2,2
SFE,1464,3,HFLUX,1,%Q2%
SFE,1465,4,RDSF,1,0.72
SFE,1465,4,RDSF,2,2
SFE,1465,4,HFLUX,1,%Q4%
SFE,1465,5,RDSF,1,0.72
SFE,1465,5,RDSF,2,2
SFE,1465,5,HFLUX,1,%Q1%
SFE,1466,4,RDSF,1,0.72
SFE,1466,4,RDSF,2,2
SFE,1466,4,HFLUX,1,%Q4%
SFE,1467,4,RDSF,1,0.72
SFE,1467,4,RDSF,2,2
SFE,1467,4,HFLUX,1,%Q4%
SFE,1468,2,RDSF,1,0.5
SFE,1468,2,RDSF,2,1
SFE,1468,4,RDSF,1,0.72
SFE,1468,4,RDSF,2,2
SFE,1468,4,HFLUX,1,%Q4%
SFE,1469,2,RDSF,1,0.5
SFE,1469,2,RDSF,2,1
SFE,1469,4,RDSF,1,0.72
SFE,1469,4,RDSF,2,2
SFE,1469,4,HFLUX,1,%Q4%
SFE,1470,2,RDSF,1,0.5
SFE,1470,2,RDSF,2,1
SFE,1470,4,RDSF,1,0.72
SFE,1470,4,RDSF,2,2
SFE,1470,4,HFLUX,1,%Q4%
SFE,1471,2,RDSF,1,0.5
SFE,1471,2,RDSF,2,1
SFE,1471,4,RDSF,1,0.72
SFE,1471,4,RDSF,2,2
SFE,1471,4,HFLUX,1,%Q4%
SFE,1472,2,RDSF,1,0.5
SFE,1472,2,RDSF,2,1
SFE,1472,4,RDSF,1,0.72
SFE,1472,4,RDSF,2,2
SFE,1472,4,HFLUX,1,%Q4%
SFE,1473,2,RDSF,1,0.5
SFE,1473,2,RDSF,2,1
SFE,1473,4,RDSF,1,0.72
SFE,1473,4,RDSF,2,2
SFE,1473,4,HFLUX,1,%Q4%
SFE,1474,2,RDSF,1,0.5
SFE,1474,2,RDSF,2,1
SFE,1474,4,RDSF,1,0.72
SFE,1474,4,RDSF,2,2
SFE,1474,4,HFLUX,1,%Q4%
SFE,1475,2,RDSF,1,0.5
SFE,1475,2,RDSF,2,1
SFE,1475,4,RDSF,1,0.72
SFE,1475,4,RDSF,2,2
SFE,1475,4,HFLUX,1,%Q4%
SFE,1476,2,RDSF,1,0.5
SFE,1476,2,RDSF,2,1
SFE,1476,4,RDSF,1,0.72
SFE,1476,4,RDSF,2,2
SFE,1476,4,HFLUX,1,%Q4%
SFE,1477,2,RDSF,1,0.5
SFE,1477,2,RDSF,2,1
SFE,1477,4,RDSF,1,0.72
SFE,1477,4,RDSF,2,2
SFE,1477,4,HFLUX,1,%Q4%
SFE,1478,4,RDSF,1,0.72
SFE,1478,4,RDSF,2,2
SFE,1478,4,HFLUX,1,%Q4%
SFE,1479,4,RDSF,1,0.72
SFE,1479,4,RDSF,2,2
SFE,1479,4,HFLUX,1,%Q4%
SFE,1480,3,RDSF,1,0.72
SFE,1480,3,RDSF,2,2
SFE,1480,3,HFLUX,1,%Q2%
SFE,1480,4,RDSF,1,0.72
SFE,1480,4,RDSF,2,2
SFE,1480,4,HFLUX,1,%Q4%
SFE,1481,2,RDSF,1,0.72
SFE,1481,2,RDSF,2,2
SFE,1481,2,HFLUX,1,%Q3%
SFE,1481,5,RDSF,1,0.72
SFE,1481,5,RDSF,2,2
SFE,1481,5,HFLUX,1,%Q1%
SFE,1482,2,RDSF,1,0.72
SFE,1482,2,RDSF,2,2
SFE,1482,2,HFLUX,1,%Q3%
SFE,1483,2,RDSF,1,0.72
SFE,1483,2,RDSF,2,2
SFE,1483,2,HFLUX,1,%Q3%
SFE,1484,2,RDSF,1,0.72
SFE,1484,2,RDSF,2,2
SFE,1484,2,HFLUX,1,%Q3%
SFE,1484,4,RDSF,1,0.5
SFE,1484,4,RDSF,2,1
SFE,1485,2,RDSF,1,0.72
SFE,1485,2,RDSF,2,2
SFE,1485,2,HFLUX,1,%Q3%
SFE,1485,4,RDSF,1,0.5
SFE,1485,4,RDSF,2,1
SFE,1486,2,RDSF,1,0.72
SFE,1486,2,RDSF,2,2
SFE,1486,2,HFLUX,1,%Q3%
SFE,1486,4,RDSF,1,0.5
SFE,1486,4,RDSF,2,1
SFE,1487,2,RDSF,1,0.72
SFE,1487,2,RDSF,2,2
SFE,1487,2,HFLUX,1,%Q3%
SFE,1487,4,RDSF,1,0.5
SFE,1487,4,RDSF,2,1
SFE,1488,2,RDSF,1,0.72
SFE,1488,2,RDSF,2,2
SFE,1488,2,HFLUX,1,%Q3%
SFE,1488,4,RDSF,1,0.5
SFE,1488,4,RDSF,2,1
SFE,1489,2,RDSF,1,0.72
SFE,1489,2,RDSF,2,2
SFE,1489,2,HFLUX,1,%Q3%
SFE,1489,4,RDSF,1,0.5
SFE,1489,4,RDSF,2,1
SFE,1490,2,RDSF,1,0.72
SFE,1490,2,RDSF,2,2
SFE,1490,2,HFLUX,1,%Q3%
SFE,1490,4,RDSF,1,0.5
SFE,1490,4,RDSF,2,1
SFE,1491,2,RDSF,1,0.72
SFE,1491,2,RDSF,2,2
SFE,1491,2,HFLUX,1,%Q3%
SFE,1491,4,RDSF,1,0.5
SFE,1491,4,RDSF,2,1
SFE,1492,2,RDSF,1,0.72
SFE,1492,2,RDSF,2,2
SFE,1492,2,HFLUX,1,%Q3%
SFE,1492,4,RDSF,1,0.5
SFE,1492,4,RDSF,2,1
SFE,1493,2,RDSF,1,0.72
SFE,1493,2,RDSF,2,2
SFE,1493,2,HFLUX,1,%Q3%
SFE,1493,4,RDSF,1,0.5
SFE,1493,4,RDSF,2,1
SFE,1494,2,RDSF,1,0.72
SFE,1494,2,RDSF,2,2
SFE,1494,2,HFLUX,1,%Q3%
SFE,1495,2,RDSF,1,0.72
SFE,1495,2,RDSF,2,2
SFE,1495,2,HFLUX,1,%Q3%
SFE,1496,2,RDSF,1,0.72
SFE,1496,2,RDSF,2,2
SFE,1496,2,HFLUX,1,%Q3%
SFE,1496,3,RDSF,1,0.72
SFE,1496,3,RDSF,2,2
SFE,1496,3,HFLUX,1,%Q2%
SFE,1497,5,RDSF,1,0.72
SFE,1497,5,RDSF,2,2
SFE,1497,5,HFLUX,1,%Q1%
SFE,1499,3,RDSF,1,0.5
SFE,1499,3,RDSF,2,1
SFE,1500,5,RDSF,1,0.5
SFE,1500,5,RDSF,2,1
SFE,1502,3,RDSF,1,0.72
SFE,1502,3,RDSF,2,2
SFE,1502,3,HFLUX,1,%Q2%
SFE,1503,5,RDSF,1,0.72
SFE,1503,5,RDSF,2,2
SFE,1503,5,HFLUX,1,%Q1%
SFE,1504,4,RDSF,1,0.5
SFE,1504,4,RDSF,2,1
SFE,1506,1,RDSF,1,0.5
SFE,1506,1,RDSF,2,1
SFE,1506,2,RDSF,1,0.5
SFE,1506,2,RDSF,2,1
SFE,1506,6,RDSF,1,0.5
SFE,1506,6,RDSF,2,1
SFE,1507,1,RDSF,1,0.5
SFE,1507,1,RDSF,2,1
SFE,1507,2,RDSF,1,0.5
SFE,1507,2,RDSF,2,1
SFE,1507,6,RDSF,1,0.5
SFE,1507,6,RDSF,2,1
SFE,1508,1,RDSF,1,0.5
SFE,1508,1,RDSF,2,1
SFE,1508,2,RDSF,1,0.5
SFE,1508,2,RDSF,2,1
SFE,1508,6,RDSF,1,0.5
SFE,1508,6,RDSF,2,1
SFE,1509,1,RDSF,1,0.5
SFE,1509,1,RDSF,2,1
SFE,1509,2,RDSF,1,0.5
SFE,1509,2,RDSF,2,1
SFE,1509,6,RDSF,1,0.5
SFE,1509,6,RDSF,2,1
SFE,1510,1,RDSF,1,0.5
SFE,1510,1,RDSF,2,1
SFE,1510,2,RDSF,1,0.5
SFE,1510,2,RDSF,2,1
SFE,1510,6,RDSF,1,0.5
SFE,1510,6,RDSF,2,1
SFE,1511,1,RDSF,1,0.5
SFE,1511,1,RDSF,2,1
SFE,1511,2,RDSF,1,0.5
SFE,1511,2,RDSF,2,1
SFE,1511,6,RDSF,1,0.5
SFE,1511,6,RDSF,2,1
SFE,1512,1,RDSF,1,0.5
SFE,1512,1,RDSF,2,1
SFE,1512,2,RDSF,1,0.5
SFE,1512,2,RDSF,2,1
SFE,1512,6,RDSF,1,0.5
SFE,1512,6,RDSF,2,1
SFE,1513,1,RDSF,1,0.5
SFE,1513,1,RDSF,2,1
SFE,1513,2,RDSF,1,0.5
SFE,1513,2,RDSF,2,1
SFE,1513,6,RDSF,1,0.5
SFE,1513,6,RDSF,2,1
SFE,1514,1,RDSF,1,0.5
SFE,1514,1,RDSF,2,1
SFE,1514,2,RDSF,1,0.5
SFE,1514,2,RDSF,2,1
SFE,1514,6,RDSF,1,0.5
SFE,1514,6,RDSF,2,1
SFE,1515,1,RDSF,1,0.5
SFE,1515,1,RDSF,2,1
SFE,1515,2,RDSF,1,0.5
SFE,1515,2,RDSF,2,1
SFE,1515,6,RDSF,1,0.5
SFE,1515,6,RDSF,2,1
SFE,1517,4,RDSF,1,0.5
SFE,1517,4,RDSF,2,1
SFE,1518,3,RDSF,1,0.72
SFE,1518,3,RDSF,2,2
SFE,1518,3,HFLUX,1,%Q2%
SFE,1519,3,RDSF,1,0.5
SFE,1519,3,RDSF,2,1
SFE,1519,5,RDSF,1,0.72
SFE,1519,5,RDSF,2,2
SFE,1519,5,HFLUX,1,%Q1%
SFE,1520,1,RDSF,1,0.5
SFE,1520,1,RDSF,2,1
SFE,1520,5,RDSF,1,0.5
SFE,1520,5,RDSF,2,1
SFE,1520,6,RDSF,1,0.5
SFE,1520,6,RDSF,2,1
SFE,1521,1,RDSF,1,0.5
SFE,1521,1,RDSF,2,1
SFE,1521,6,RDSF,1,0.5
SFE,1521,6,RDSF,2,1
SFE,1522,1,RDSF,1,0.5
SFE,1522,1,RDSF,2,1
SFE,1522,6,RDSF,1,0.5
SFE,1522,6,RDSF,2,1
SFE,1523,1,RDSF,1,0.5
SFE,1523,1,RDSF,2,1
SFE,1523,6,RDSF,1,0.5
SFE,1523,6,RDSF,2,1
SFE,1524,1,RDSF,1,0.5
SFE,1524,1,RDSF,2,1
SFE,1524,6,RDSF,1,0.5
SFE,1524,6,RDSF,2,1
SFE,1525,1,RDSF,1,0.5
SFE,1525,1,RDSF,2,1
SFE,1525,6,RDSF,1,0.5
SFE,1525,6,RDSF,2,1
SFE,1526,1,RDSF,1,0.5
SFE,1526,1,RDSF,2,1
SFE,1526,6,RDSF,1,0.5
SFE,1526,6,RDSF,2,1
SFE,1527,1,RDSF,1,0.5
SFE,1527,1,RDSF,2,1
SFE,1527,6,RDSF,1,0.5
SFE,1527,6,RDSF,2,1
SFE,1528,1,RDSF,1,0.5
SFE,1528,1,RDSF,2,1
SFE,1528,6,RDSF,1,0.5
SFE,1528,6,RDSF,2,1
SFE,1529,1,RDSF,1,0.5
SFE,1529,1,RDSF,2,1
SFE,1529,6,RDSF,1,0.5
SFE,1529,6,RDSF,2,1
SFE,1530,1,RDSF,1,0.5
SFE,1530,1,RDSF,2,1
SFE,1530,6,RDSF,1,0.5
SFE,1530,6,RDSF,2,1
SFE,1531,1,RDSF,1,0.5
SFE,1531,1,RDSF,2,1
SFE,1531,3,RDSF,1,0.5
SFE,1531,3,RDSF,2,1
SFE,1531,6,RDSF,1,0.5
SFE,1531,6,RDSF,2,1
SFE,1532,3,RDSF,1,0.72
SFE,1532,3,RDSF,2,2
SFE,1532,3,HFLUX,1,%Q2%
SFE,1532,5,RDSF,1,0.5
SFE,1532,5,RDSF,2,1
SFE,1533,3,RDSF,1,0.5
SFE,1533,3,RDSF,2,1
SFE,1533,5,RDSF,1,0.72
SFE,1533,5,RDSF,2,2
SFE,1533,5,HFLUX,1,%Q1%
SFE,1534,1,RDSF,1,0.5
SFE,1534,1,RDSF,2,1
SFE,1534,5,RDSF,1,0.5
SFE,1534,5,RDSF,2,1
SFE,1534,6,RDSF,1,0.5
SFE,1534,6,RDSF,2,1
SFE,1535,1,RDSF,1,0.5
SFE,1535,1,RDSF,2,1
SFE,1535,6,RDSF,1,0.5
SFE,1535,6,RDSF,2,1
SFE,1537,1,RDSF,1,0.5
SFE,1537,1,RDSF,2,1
SFE,1537,6,RDSF,1,0.5
SFE,1537,6,RDSF,2,1
SFE,1538,1,RDSF,1,0.5
SFE,1538,1,RDSF,2,1
SFE,1538,6,RDSF,1,0.5
SFE,1538,6,RDSF,2,1
SFE,1539,1,RDSF,1,0.5
SFE,1539,1,RDSF,2,1
SFE,1539,6,RDSF,1,0.5
SFE,1539,6,RDSF,2,1
SFE,1540,1,RDSF,1,0.5
SFE,1540,1,RDSF,2,1
SFE,1540,6,RDSF,1,0.5
SFE,1540,6,RDSF,2,1
SFE,1541,1,RDSF,1,0.5
SFE,1541,1,RDSF,2,1
SFE,1541,6,RDSF,1,0.5
SFE,1541,6,RDSF,2,1
SFE,1542,1,RDSF,1,0.5
SFE,1542,1,RDSF,2,1
SFE,1542,6,RDSF,1,0.5
SFE,1542,6,RDSF,2,1
SFE,1544,1,RDSF,1,0.5
SFE,1544,1,RDSF,2,1
SFE,1544,6,RDSF,1,0.5
SFE,1544,6,RDSF,2,1
SFE,1545,1,RDSF,1,0.5
SFE,1545,1,RDSF,2,1
SFE,1545,3,RDSF,1,0.5
SFE,1545,3,RDSF,2,1
SFE,1545,6,RDSF,1,0.5
SFE,1545,6,RDSF,2,1
SFE,1546,3,RDSF,1,0.72
SFE,1546,3,RDSF,2,2
SFE,1546,3,HFLUX,1,%Q2%
SFE,1546,5,RDSF,1,0.5
SFE,1546,5,RDSF,2,1
SFE,1547,3,RDSF,1,0.5
SFE,1547,3,RDSF,2,1
SFE,1547,5,RDSF,1,0.72
SFE,1547,5,RDSF,2,2
SFE,1547,5,HFLUX,1,%Q1%
SFE,1548,1,RDSF,1,0.5
SFE,1548,1,RDSF,2,1
SFE,1548,5,RDSF,1,0.5
SFE,1548,5,RDSF,2,1
SFE,1548,6,RDSF,1,0.5
SFE,1548,6,RDSF,2,1
SFE,1549,1,RDSF,1,0.5
SFE,1549,1,RDSF,2,1
SFE,1549,6,RDSF,1,0.5
SFE,1549,6,RDSF,2,1
SFE,1550,1,RDSF,1,0.5
SFE,1550,1,RDSF,2,1
SFE,1550,6,RDSF,1,0.5
SFE,1550,6,RDSF,2,1
SFE,1551,1,RDSF,1,0.5
SFE,1551,1,RDSF,2,1
SFE,1551,6,RDSF,1,0.5
SFE,1551,6,RDSF,2,1
SFE,1552,1,RDSF,1,0.5
SFE,1552,1,RDSF,2,1
SFE,1552,6,RDSF,1,0.5
SFE,1552,6,RDSF,2,1
SFE,1553,1,RDSF,1,0.5
SFE,1553,1,RDSF,2,1
SFE,1553,6,RDSF,1,0.5
SFE,1553,6,RDSF,2,1
SFE,1554,1,RDSF,1,0.5
SFE,1554,1,RDSF,2,1
SFE,1554,6,RDSF,1,0.5
SFE,1554,6,RDSF,2,1
SFE,1555,1,RDSF,1,0.5
SFE,1555,1,RDSF,2,1
SFE,1555,6,RDSF,1,0.5
SFE,1555,6,RDSF,2,1
SFE,1556,1,RDSF,1,0.5
SFE,1556,1,RDSF,2,1
SFE,1556,6,RDSF,1,0.5
SFE,1556,6,RDSF,2,1
SFE,1557,1,RDSF,1,0.5
SFE,1557,1,RDSF,2,1
SFE,1557,6,RDSF,1,0.5
SFE,1557,6,RDSF,2,1
SFE,1558,1,RDSF,1,0.5
SFE,1558,1,RDSF,2,1
SFE,1558,6,RDSF,1,0.5
SFE,1558,6,RDSF,2,1
SFE,1559,1,RDSF,1,0.5
SFE,1559,1,RDSF,2,1
SFE,1559,3,RDSF,1,0.5
SFE,1559,3,RDSF,2,1
SFE,1559,6,RDSF,1,0.5
SFE,1559,6,RDSF,2,1
SFE,1560,3,RDSF,1,0.72
SFE,1560,3,RDSF,2,2
SFE,1560,3,HFLUX,1,%Q2%
SFE,1560,5,RDSF,1,0.5
SFE,1560,5,RDSF,2,1
SFE,1561,3,RDSF,1,0.5
SFE,1561,3,RDSF,2,1
SFE,1561,5,RDSF,1,0.72
SFE,1561,5,RDSF,2,2
SFE,1561,5,HFLUX,1,%Q1%
SFE,1562,1,RDSF,1,0.5
SFE,1562,1,RDSF,2,1
SFE,1562,5,RDSF,1,0.5
SFE,1562,5,RDSF,2,1
SFE,1562,6,RDSF,1,0.5
SFE,1562,6,RDSF,2,1
SFE,1563,1,RDSF,1,0.5
SFE,1563,1,RDSF,2,1
SFE,1563,6,RDSF,1,0.5
SFE,1563,6,RDSF,2,1
SFE,1564,1,RDSF,1,0.5
SFE,1564,1,RDSF,2,1
SFE,1564,6,RDSF,1,0.5
SFE,1564,6,RDSF,2,1
SFE,1565,1,RDSF,1,0.5
SFE,1565,1,RDSF,2,1
SFE,1565,6,RDSF,1,0.5
SFE,1565,6,RDSF,2,1
SFE,1566,1,RDSF,1,0.5
SFE,1566,1,RDSF,2,1
SFE,1566,6,RDSF,1,0.5
SFE,1566,6,RDSF,2,1
SFE,1567,1,RDSF,1,0.5
SFE,1567,1,RDSF,2,1
SFE,1567,6,RDSF,1,0.5
SFE,1567,6,RDSF,2,1
SFE,1568,1,RDSF,1,0.5
SFE,1568,1,RDSF,2,1
SFE,1568,6,RDSF,1,0.5
SFE,1568,6,RDSF,2,1
SFE,1569,1,RDSF,1,0.5
SFE,1569,1,RDSF,2,1
SFE,1569,6,RDSF,1,0.5
SFE,1569,6,RDSF,2,1
SFE,1570,1,RDSF,1,0.5
SFE,1570,1,RDSF,2,1
SFE,1570,6,RDSF,1,0.5
SFE,1570,6,RDSF,2,1
SFE,1571,1,RDSF,1,0.5
SFE,1571,1,RDSF,2,1
SFE,1571,6,RDSF,1,0.5
SFE,1571,6,RDSF,2,1
SFE,1572,1,RDSF,1,0.5
SFE,1572,1,RDSF,2,1
SFE,1572,6,RDSF,1,0.5
SFE,1572,6,RDSF,2,1
SFE,1573,1,RDSF,1,0.5
SFE,1573,1,RDSF,2,1
SFE,1573,3,RDSF,1,0.5
SFE,1573,3,RDSF,2,1
SFE,1573,6,RDSF,1,0.5
SFE,1573,6,RDSF,2,1
SFE,1574,3,RDSF,1,0.72
SFE,1574,3,RDSF,2,2
SFE,1574,3,HFLUX,1,%Q2%
SFE,1574,5,RDSF,1,0.5
SFE,1574,5,RDSF,2,1
SFE,1575,3,RDSF,1,0.5
SFE,1575,3,RDSF,2,1
SFE,1575,5,RDSF,1,0.72
SFE,1575,5,RDSF,2,2
SFE,1575,5,HFLUX,1,%Q1%
SFE,1576,1,RDSF,1,0.5
SFE,1576,1,RDSF,2,1
SFE,1576,5,RDSF,1,0.5
SFE,1576,5,RDSF,2,1
SFE,1576,6,RDSF,1,0.5
SFE,1576,6,RDSF,2,1
SFE,1577,1,RDSF,1,0.5
SFE,1577,1,RDSF,2,1
SFE,1577,6,RDSF,1,0.5
SFE,1577,6,RDSF,2,1
SFE,1578,1,RDSF,1,0.5
SFE,1578,1,RDSF,2,1
SFE,1578,6,RDSF,1,0.5
SFE,1578,6,RDSF,2,1
SFE,1579,1,RDSF,1,0.5
SFE,1579,1,RDSF,2,1
SFE,1579,6,RDSF,1,0.5
SFE,1579,6,RDSF,2,1
SFE,1580,1,RDSF,1,0.5
SFE,1580,1,RDSF,2,1
SFE,1580,6,RDSF,1,0.5
SFE,1580,6,RDSF,2,1
SFE,1581,1,RDSF,1,0.5
SFE,1581,1,RDSF,2,1
SFE,1581,6,RDSF,1,0.5
SFE,1581,6,RDSF,2,1
SFE,1582,1,RDSF,1,0.5
SFE,1582,1,RDSF,2,1
SFE,1582,6,RDSF,1,0.5
SFE,1582,6,RDSF,2,1
SFE,1583,1,RDSF,1,0.5
SFE,1583,1,RDSF,2,1
SFE,1583,6,RDSF,1,0.5
SFE,1583,6,RDSF,2,1
SFE,1584,1,RDSF,1,0.5
SFE,1584,1,RDSF,2,1
SFE,1584,6,RDSF,1,0.5
SFE,1584,6,RDSF,2,1
SFE,1585,1,RDSF,1,0.5
SFE,1585,1,RDSF,2,1
SFE,1585,6,RDSF,1,0.5
SFE,1585,6,RDSF,2,1
SFE,1586,1,RDSF,1,0.5
SFE,1586,1,RDSF,2,1
SFE,1586,6,RDSF,1,0.5
SFE,1586,6,RDSF,2,1
SFE,1587,1,RDSF,1,0.5
SFE,1587,1,RDSF,2,1
SFE,1587,3,RDSF,1,0.5
SFE,1587,3,RDSF,2,1
SFE,1587,6,RDSF,1,0.5
SFE,1587,6,RDSF,2,1
SFE,1588,3,RDSF,1,0.72
SFE,1588,3,RDSF,2,2
SFE,1588,3,HFLUX,1,%Q2%
SFE,1588,5,RDSF,1,0.5
SFE,1588,5,RDSF,2,1
SFE,1589,3,RDSF,1,0.5
SFE,1589,3,RDSF,2,1
SFE,1589,5,RDSF,1,0.72
SFE,1589,5,RDSF,2,2
SFE,1589,5,HFLUX,1,%Q1%
SFE,1590,1,RDSF,1,0.5
SFE,1590,1,RDSF,2,1
SFE,1590,5,RDSF,1,0.5
SFE,1590,5,RDSF,2,1
SFE,1590,6,RDSF,1,0.5
SFE,1590,6,RDSF,2,1
SFE,1591,1,RDSF,1,0.5
SFE,1591,1,RDSF,2,1
SFE,1591,6,RDSF,1,0.5
SFE,1591,6,RDSF,2,1
SFE,1592,1,RDSF,1,0.5
SFE,1592,1,RDSF,2,1
SFE,1592,6,RDSF,1,0.5
SFE,1592,6,RDSF,2,1
SFE,1593,1,RDSF,1,0.5
SFE,1593,1,RDSF,2,1
SFE,1593,6,RDSF,1,0.5
SFE,1593,6,RDSF,2,1
SFE,1594,1,RDSF,1,0.5
SFE,1594,1,RDSF,2,1
SFE,1594,6,RDSF,1,0.5
SFE,1594,6,RDSF,2,1
SFE,1595,1,RDSF,1,0.5
SFE,1595,1,RDSF,2,1
SFE,1595,6,RDSF,1,0.5
SFE,1595,6,RDSF,2,1
SFE,1596,1,RDSF,1,0.5
SFE,1596,1,RDSF,2,1
SFE,1596,6,RDSF,1,0.5
SFE,1596,6,RDSF,2,1
SFE,1597,1,RDSF,1,0.5
SFE,1597,1,RDSF,2,1
SFE,1597,6,RDSF,1,0.5
SFE,1597,6,RDSF,2,1
SFE,1598,1,RDSF,1,0.5
SFE,1598,1,RDSF,2,1
SFE,1598,6,RDSF,1,0.5
SFE,1598,6,RDSF,2,1
SFE,1599,1,RDSF,1,0.5
SFE,1599,1,RDSF,2,1
SFE,1599,6,RDSF,1,0.5
SFE,1599,6,RDSF,2,1
SFE,1600,1,RDSF,1,0.5
SFE,1600,1,RDSF,2,1
SFE,1600,6,RDSF,1,0.5
SFE,1600,6,RDSF,2,1
SFE,1601,1,RDSF,1,0.5
SFE,1601,1,RDSF,2,1
SFE,1601,3,RDSF,1,0.5
SFE,1601,3,RDSF,2,1
SFE,1601,6,RDSF,1,0.5
SFE,1601,6,RDSF,2,1
SFE,1602,3,RDSF,1,0.72
SFE,1602,3,RDSF,2,2
SFE,1602,3,HFLUX,1,%Q2%
SFE,1602,5,RDSF,1,0.5
SFE,1602,5,RDSF,2,1
SFE,1603,3,RDSF,1,0.5
SFE,1603,3,RDSF,2,1
SFE,1603,5,RDSF,1,0.72
SFE,1603,5,RDSF,2,2
SFE,1603,5,HFLUX,1,%Q1%
SFE,1604,1,RDSF,1,0.5
SFE,1604,1,RDSF,2,1
SFE,1604,5,RDSF,1,0.5
SFE,1604,5,RDSF,2,1
SFE,1604,6,RDSF,1,0.5
SFE,1604,6,RDSF,2,1
SFE,1605,1,RDSF,1,0.5
SFE,1605,1,RDSF,2,1
SFE,1605,6,RDSF,1,0.5
SFE,1605,6,RDSF,2,1
SFE,1606,1,RDSF,1,0.5
SFE,1606,1,RDSF,2,1
SFE,1606,6,RDSF,1,0.5
SFE,1606,6,RDSF,2,1
SFE,1607,1,RDSF,1,0.5
SFE,1607,1,RDSF,2,1
SFE,1607,6,RDSF,1,0.5
SFE,1607,6,RDSF,2,1
SFE,1608,1,RDSF,1,0.5
SFE,1608,1,RDSF,2,1
SFE,1608,6,RDSF,1,0.5
SFE,1608,6,RDSF,2,1
SFE,1609,1,RDSF,1,0.5
SFE,1609,1,RDSF,2,1
SFE,1609,6,RDSF,1,0.5
SFE,1609,6,RDSF,2,1
SFE,1610,1,RDSF,1,0.5
SFE,1610,1,RDSF,2,1
SFE,1610,6,RDSF,1,0.5
SFE,1610,6,RDSF,2,1
SFE,1611,1,RDSF,1,0.5
SFE,1611,1,RDSF,2,1
SFE,1611,6,RDSF,1,0.5
SFE,1611,6,RDSF,2,1
SFE,1612,1,RDSF,1,0.5
SFE,1612,1,RDSF,2,1
SFE,1612,6,RDSF,1,0.5
SFE,1612,6,RDSF,2,1
SFE,1613,1,RDSF,1,0.5
SFE,1613,1,RDSF,2,1
SFE,1613,6,RDSF,1,0.5
SFE,1613,6,RDSF,2,1
SFE,1614,1,RDSF,1,0.5
SFE,1614,1,RDSF,2,1
SFE,1614,6,RDSF,1,0.5
SFE,1614,6,RDSF,2,1
SFE,1615,1,RDSF,1,0.5
SFE,1615,1,RDSF,2,1
SFE,1615,3,RDSF,1,0.5
SFE,1615,3,RDSF,2,1
SFE,1615,6,RDSF,1,0.5
SFE,1615,6,RDSF,2,1
SFE,1616,3,RDSF,1,0.72
SFE,1616,3,RDSF,2,2
SFE,1616,3,HFLUX,1,%Q2%
SFE,1616,5,RDSF,1,0.5
SFE,1616,5,RDSF,2,1
SFE,1617,3,RDSF,1,0.5
SFE,1617,3,RDSF,2,1
SFE,1617,5,RDSF,1,0.72
SFE,1617,5,RDSF,2,2
SFE,1617,5,HFLUX,1,%Q1%
SFE,1618,1,RDSF,1,0.5
SFE,1618,1,RDSF,2,1
SFE,1618,5,RDSF,1,0.5
SFE,1618,5,RDSF,2,1
SFE,1618,6,RDSF,1,0.5
SFE,1618,6,RDSF,2,1
SFE,1619,1,RDSF,1,0.5
SFE,1619,1,RDSF,2,1
SFE,1619,6,RDSF,1,0.5
SFE,1619,6,RDSF,2,1
SFE,1620,1,RDSF,1,0.5
SFE,1620,1,RDSF,2,1
SFE,1620,6,RDSF,1,0.5
SFE,1620,6,RDSF,2,1
SFE,1621,1,RDSF,1,0.5
SFE,1621,1,RDSF,2,1
SFE,1621,6,RDSF,1,0.5
SFE,1621,6,RDSF,2,1
SFE,1622,1,RDSF,1,0.5
SFE,1622,1,RDSF,2,1
SFE,1622,6,RDSF,1,0.5
SFE,1622,6,RDSF,2,1
SFE,1623,1,RDSF,1,0.5
SFE,1623,1,RDSF,2,1
SFE,1623,6,RDSF,1,0.5
SFE,1623,6,RDSF,2,1
SFE,1624,1,RDSF,1,0.5
SFE,1624,1,RDSF,2,1
SFE,1624,6,RDSF,1,0.5
SFE,1624,6,RDSF,2,1
SFE,1625,1,RDSF,1,0.5
SFE,1625,1,RDSF,2,1
SFE,1625,6,RDSF,1,0.5
SFE,1625,6,RDSF,2,1
SFE,1626,1,RDSF,1,0.5
SFE,1626,1,RDSF,2,1
SFE,1626,6,RDSF,1,0.5
SFE,1626,6,RDSF,2,1
SFE,1627,1,RDSF,1,0.5
SFE,1627,1,RDSF,2,1
SFE,1627,6,RDSF,1,0.5
SFE,1627,6,RDSF,2,1
SFE,1628,1,RDSF,1,0.5
SFE,1628,1,RDSF,2,1
SFE,1628,6,RDSF,1,0.5
SFE,1628,6,RDSF,2,1
SFE,1629,1,RDSF,1,0.5
SFE,1629,1,RDSF,2,1
SFE,1629,3,RDSF,1,0.5
SFE,1629,3,RDSF,2,1
SFE,1629,6,RDSF,1,0.5
SFE,1629,6,RDSF,2,1
SFE,1630,3,RDSF,1,0.72
SFE,1630,3,RDSF,2,2
SFE,1630,3,HFLUX,1,%Q2%
SFE,1630,5,RDSF,1,0.5
SFE,1630,5,RDSF,2,1
SFE,1631,3,RDSF,1,0.5
SFE,1631,3,RDSF,2,1
SFE,1631,5,RDSF,1,0.72
SFE,1631,5,RDSF,2,2
SFE,1631,5,HFLUX,1,%Q1%
SFE,1632,1,RDSF,1,0.5
SFE,1632,1,RDSF,2,1
SFE,1632,5,RDSF,1,0.5
SFE,1632,5,RDSF,2,1
SFE,1632,6,RDSF,1,0.5
SFE,1632,6,RDSF,2,1
SFE,1633,1,RDSF,1,0.5
SFE,1633,1,RDSF,2,1
SFE,1633,6,RDSF,1,0.5
SFE,1633,6,RDSF,2,1
SFE,1635,1,RDSF,1,0.5
SFE,1635,1,RDSF,2,1
SFE,1635,6,RDSF,1,0.5
SFE,1635,6,RDSF,2,1
SFE,1636,1,RDSF,1,0.5
SFE,1636,1,RDSF,2,1
SFE,1636,6,RDSF,1,0.5
SFE,1636,6,RDSF,2,1
SFE,1637,1,RDSF,1,0.5
SFE,1637,1,RDSF,2,1
SFE,1637,6,RDSF,1,0.5
SFE,1637,6,RDSF,2,1
SFE,1638,1,RDSF,1,0.5
SFE,1638,1,RDSF,2,1
SFE,1638,6,RDSF,1,0.5
SFE,1638,6,RDSF,2,1
SFE,1639,1,RDSF,1,0.5
SFE,1639,1,RDSF,2,1
SFE,1639,6,RDSF,1,0.5
SFE,1639,6,RDSF,2,1
SFE,1640,1,RDSF,1,0.5
SFE,1640,1,RDSF,2,1
SFE,1640,6,RDSF,1,0.5
SFE,1640,6,RDSF,2,1
SFE,1642,1,RDSF,1,0.5
SFE,1642,1,RDSF,2,1
SFE,1642,6,RDSF,1,0.5
SFE,1642,6,RDSF,2,1
SFE,1643,1,RDSF,1,0.5
SFE,1643,1,RDSF,2,1
SFE,1643,3,RDSF,1,0.5
SFE,1643,3,RDSF,2,1
SFE,1643,6,RDSF,1,0.5
SFE,1643,6,RDSF,2,1
SFE,1644,3,RDSF,1,0.72
SFE,1644,3,RDSF,2,2
SFE,1644,3,HFLUX,1,%Q2%
SFE,1644,5,RDSF,1,0.5
SFE,1644,5,RDSF,2,1
SFE,1645,3,RDSF,1,0.5
SFE,1645,3,RDSF,2,1
SFE,1645,5,RDSF,1,0.72
SFE,1645,5,RDSF,2,2
SFE,1645,5,HFLUX,1,%Q1%
SFE,1646,1,RDSF,1,0.5
SFE,1646,1,RDSF,2,1
SFE,1646,5,RDSF,1,0.5
SFE,1646,5,RDSF,2,1
SFE,1646,6,RDSF,1,0.5
SFE,1646,6,RDSF,2,1
SFE,1647,1,RDSF,1,0.5
SFE,1647,1,RDSF,2,1
SFE,1647,6,RDSF,1,0.5
SFE,1647,6,RDSF,2,1
SFE,1648,1,RDSF,1,0.5
SFE,1648,1,RDSF,2,1
SFE,1648,6,RDSF,1,0.5
SFE,1648,6,RDSF,2,1
SFE,1649,1,RDSF,1,0.5
SFE,1649,1,RDSF,2,1
SFE,1649,6,RDSF,1,0.5
SFE,1649,6,RDSF,2,1
SFE,1650,1,RDSF,1,0.5
SFE,1650,1,RDSF,2,1
SFE,1650,6,RDSF,1,0.5
SFE,1650,6,RDSF,2,1
SFE,1651,1,RDSF,1,0.5
SFE,1651,1,RDSF,2,1
SFE,1651,6,RDSF,1,0.5
SFE,1651,6,RDSF,2,1
SFE,1652,1,RDSF,1,0.5
SFE,1652,1,RDSF,2,1
SFE,1652,6,RDSF,1,0.5
SFE,1652,6,RDSF,2,1
SFE,1653,1,RDSF,1,0.5
SFE,1653,1,RDSF,2,1
SFE,1653,6,RDSF,1,0.5
SFE,1653,6,RDSF,2,1
SFE,1654,1,RDSF,1,0.5
SFE,1654,1,RDSF,2,1
SFE,1654,6,RDSF,1,0.5
SFE,1654,6,RDSF,2,1
SFE,1655,1,RDSF,1,0.5
SFE,1655,1,RDSF,2,1
SFE,1655,6,RDSF,1,0.5
SFE,1655,6,RDSF,2,1
SFE,1656,1,RDSF,1,0.5
SFE,1656,1,RDSF,2,1
SFE,1656,6,RDSF,1,0.5
SFE,1656,6,RDSF,2,1
SFE,1657,1,RDSF,1,0.5
SFE,1657,1,RDSF,2,1
SFE,1657,3,RDSF,1,0.5
SFE,1657,3,RDSF,2,1
SFE,1657,6,RDSF,1,0.5
SFE,1657,6,RDSF,2,1
SFE,1658,3,RDSF,1,0.72
SFE,1658,3,RDSF,2,2
SFE,1658,3,HFLUX,1,%Q2%
SFE,1658,5,RDSF,1,0.5
SFE,1658,5,RDSF,2,1
SFE,1659,5,RDSF,1,0.72
SFE,1659,5,RDSF,2,2
SFE,1659,5,HFLUX,1,%Q1%
SFE,1660,2,RDSF,1,0.5
SFE,1660,2,RDSF,2,1
SFE,1662,1,RDSF,1,0.5
SFE,1662,1,RDSF,2,1
SFE,1662,4,RDSF,1,0.5
SFE,1662,4,RDSF,2,1
SFE,1662,6,RDSF,1,0.5
SFE,1662,6,RDSF,2,1
SFE,1663,1,RDSF,1,0.5
SFE,1663,1,RDSF,2,1
SFE,1663,4,RDSF,1,0.5
SFE,1663,4,RDSF,2,1
SFE,1663,6,RDSF,1,0.5
SFE,1663,6,RDSF,2,1
SFE,1664,1,RDSF,1,0.5
SFE,1664,1,RDSF,2,1
SFE,1664,4,RDSF,1,0.5
SFE,1664,4,RDSF,2,1
SFE,1664,6,RDSF,1,0.5
SFE,1664,6,RDSF,2,1
SFE,1665,1,RDSF,1,0.5
SFE,1665,1,RDSF,2,1
SFE,1665,4,RDSF,1,0.5
SFE,1665,4,RDSF,2,1
SFE,1665,6,RDSF,1,0.5
SFE,1665,6,RDSF,2,1
SFE,1666,1,RDSF,1,0.5
SFE,1666,1,RDSF,2,1
SFE,1666,4,RDSF,1,0.5
SFE,1666,4,RDSF,2,1
SFE,1666,6,RDSF,1,0.5
SFE,1666,6,RDSF,2,1
SFE,1667,1,RDSF,1,0.5
SFE,1667,1,RDSF,2,1
SFE,1667,4,RDSF,1,0.5
SFE,1667,4,RDSF,2,1
SFE,1667,6,RDSF,1,0.5
SFE,1667,6,RDSF,2,1
SFE,1668,1,RDSF,1,0.5
SFE,1668,1,RDSF,2,1
SFE,1668,4,RDSF,1,0.5
SFE,1668,4,RDSF,2,1
SFE,1668,6,RDSF,1,0.5
SFE,1668,6,RDSF,2,1
SFE,1669,1,RDSF,1,0.5
SFE,1669,1,RDSF,2,1
SFE,1669,4,RDSF,1,0.5
SFE,1669,4,RDSF,2,1
SFE,1669,6,RDSF,1,0.5
SFE,1669,6,RDSF,2,1
SFE,1670,1,RDSF,1,0.5
SFE,1670,1,RDSF,2,1
SFE,1670,4,RDSF,1,0.5
SFE,1670,4,RDSF,2,1
SFE,1670,6,RDSF,1,0.5
SFE,1670,6,RDSF,2,1
SFE,1671,1,RDSF,1,0.5
SFE,1671,1,RDSF,2,1
SFE,1671,4,RDSF,1,0.5
SFE,1671,4,RDSF,2,1
SFE,1671,6,RDSF,1,0.5
SFE,1671,6,RDSF,2,1
SFE,1673,2,RDSF,1,0.5
SFE,1673,2,RDSF,2,1
SFE,1674,3,RDSF,1,0.72
SFE,1674,3,RDSF,2,2
SFE,1674,3,HFLUX,1,%Q2%
SFE,1675,5,RDSF,1,0.72
SFE,1675,5,RDSF,2,2
SFE,1675,5,HFLUX,1,%Q1%
SFE,1677,3,RDSF,1,0.5
SFE,1677,3,RDSF,2,1
SFE,1678,5,RDSF,1,0.5
SFE,1678,5,RDSF,2,1
SFE,1680,3,RDSF,1,0.72
SFE,1680,3,RDSF,2,2
SFE,1680,3,HFLUX,1,%Q2%
SFE,1681,4,RDSF,1,0.72
SFE,1681,4,RDSF,2,2
SFE,1681,4,HFLUX,1,%Q4%
SFE,1681,5,RDSF,1,0.72
SFE,1681,5,RDSF,2,2
SFE,1681,5,HFLUX,1,%Q1%
SFE,1682,4,RDSF,1,0.72
SFE,1682,4,RDSF,2,2
SFE,1682,4,HFLUX,1,%Q4%
SFE,1683,4,RDSF,1,0.72
SFE,1683,4,RDSF,2,2
SFE,1683,4,HFLUX,1,%Q4%
SFE,1684,2,RDSF,1,0.5
SFE,1684,2,RDSF,2,1
SFE,1684,4,RDSF,1,0.72
SFE,1684,4,RDSF,2,2
SFE,1684,4,HFLUX,1,%Q4%
SFE,1685,2,RDSF,1,0.5
SFE,1685,2,RDSF,2,1
SFE,1685,4,RDSF,1,0.72
SFE,1685,4,RDSF,2,2
SFE,1685,4,HFLUX,1,%Q4%
SFE,1686,2,RDSF,1,0.5
SFE,1686,2,RDSF,2,1
SFE,1686,4,RDSF,1,0.72
SFE,1686,4,RDSF,2,2
SFE,1686,4,HFLUX,1,%Q4%
SFE,1687,2,RDSF,1,0.5
SFE,1687,2,RDSF,2,1
SFE,1687,4,RDSF,1,0.72
SFE,1687,4,RDSF,2,2
SFE,1687,4,HFLUX,1,%Q4%
SFE,1688,2,RDSF,1,0.5
SFE,1688,2,RDSF,2,1
SFE,1688,4,RDSF,1,0.72
SFE,1688,4,RDSF,2,2
SFE,1688,4,HFLUX,1,%Q4%
SFE,1689,2,RDSF,1,0.5
SFE,1689,2,RDSF,2,1
SFE,1689,4,RDSF,1,0.72
SFE,1689,4,RDSF,2,2
SFE,1689,4,HFLUX,1,%Q4%
SFE,1690,2,RDSF,1,0.5
SFE,1690,2,RDSF,2,1
SFE,1690,4,RDSF,1,0.72
SFE,1690,4,RDSF,2,2
SFE,1690,4,HFLUX,1,%Q4%
SFE,1691,2,RDSF,1,0.5
SFE,1691,2,RDSF,2,1
SFE,1691,4,RDSF,1,0.72
SFE,1691,4,RDSF,2,2
SFE,1691,4,HFLUX,1,%Q4%
SFE,1692,2,RDSF,1,0.5
SFE,1692,2,RDSF,2,1
SFE,1692,4,RDSF,1,0.72
SFE,1692,4,RDSF,2,2
SFE,1692,4,HFLUX,1,%Q4%
SFE,1693,2,RDSF,1,0.5
SFE,1693,2,RDSF,2,1
SFE,1693,4,RDSF,1,0.72
SFE,1693,4,RDSF,2,2
SFE,1693,4,HFLUX,1,%Q4%
SFE,1694,4,RDSF,1,0.72
SFE,1694,4,RDSF,2,2
SFE,1694,4,HFLUX,1,%Q4%
SFE,1695,4,RDSF,1,0.72
SFE,1695,4,RDSF,2,2
SFE,1695,4,HFLUX,1,%Q4%
SFE,1696,3,RDSF,1,0.72
SFE,1696,3,RDSF,2,2
SFE,1696,3,HFLUX,1,%Q2%
SFE,1696,4,RDSF,1,0.72
SFE,1696,4,RDSF,2,2
SFE,1696,4,HFLUX,1,%Q4%
SFE,1697,2,RDSF,1,0.72
SFE,1697,2,RDSF,2,2
SFE,1697,2,HFLUX,1,%Q3%
SFE,1697,5,RDSF,1,0.72
SFE,1697,5,RDSF,2,2
SFE,1697,5,HFLUX,1,%Q1%
SFE,1698,2,RDSF,1,0.72
SFE,1698,2,RDSF,2,2
SFE,1698,2,HFLUX,1,%Q3%
SFE,1699,2,RDSF,1,0.72
SFE,1699,2,RDSF,2,2
SFE,1699,2,HFLUX,1,%Q3%
SFE,1700,2,RDSF,1,0.72
SFE,1700,2,RDSF,2,2
SFE,1700,2,HFLUX,1,%Q3%
SFE,1700,4,RDSF,1,0.5
SFE,1700,4,RDSF,2,1
SFE,1701,2,RDSF,1,0.72
SFE,1701,2,RDSF,2,2
SFE,1701,2,HFLUX,1,%Q3%
SFE,1701,4,RDSF,1,0.5
SFE,1701,4,RDSF,2,1
SFE,1702,2,RDSF,1,0.72
SFE,1702,2,RDSF,2,2
SFE,1702,2,HFLUX,1,%Q3%
SFE,1702,4,RDSF,1,0.5
SFE,1702,4,RDSF,2,1
SFE,1703,2,RDSF,1,0.72
SFE,1703,2,RDSF,2,2
SFE,1703,2,HFLUX,1,%Q3%
SFE,1703,4,RDSF,1,0.5
SFE,1703,4,RDSF,2,1
SFE,1704,2,RDSF,1,0.72
SFE,1704,2,RDSF,2,2
SFE,1704,2,HFLUX,1,%Q3%
SFE,1704,4,RDSF,1,0.5
SFE,1704,4,RDSF,2,1
SFE,1705,2,RDSF,1,0.72
SFE,1705,2,RDSF,2,2
SFE,1705,2,HFLUX,1,%Q3%
SFE,1705,4,RDSF,1,0.5
SFE,1705,4,RDSF,2,1
SFE,1706,2,RDSF,1,0.72
SFE,1706,2,RDSF,2,2
SFE,1706,2,HFLUX,1,%Q3%
SFE,1706,4,RDSF,1,0.5
SFE,1706,4,RDSF,2,1
SFE,1707,2,RDSF,1,0.72
SFE,1707,2,RDSF,2,2
SFE,1707,2,HFLUX,1,%Q3%
SFE,1707,4,RDSF,1,0.5
SFE,1707,4,RDSF,2,1
SFE,1708,2,RDSF,1,0.72
SFE,1708,2,RDSF,2,2
SFE,1708,2,HFLUX,1,%Q3%
SFE,1708,4,RDSF,1,0.5
SFE,1708,4,RDSF,2,1
SFE,1709,2,RDSF,1,0.72
SFE,1709,2,RDSF,2,2
SFE,1709,2,HFLUX,1,%Q3%
SFE,1709,4,RDSF,1,0.5
SFE,1709,4,RDSF,2,1
SFE,1710,2,RDSF,1,0.72
SFE,1710,2,RDSF,2,2
SFE,1710,2,HFLUX,1,%Q3%
SFE,1711,2,RDSF,1,0.72
SFE,1711,2,RDSF,2,2
SFE,1711,2,HFLUX,1,%Q3%
SFE,1712,2,RDSF,1,0.72
SFE,1712,2,RDSF,2,2
SFE,1712,2,HFLUX,1,%Q3%
SFE,1712,3,RDSF,1,0.72
SFE,1712,3,RDSF,2,2
SFE,1712,3,HFLUX,1,%Q2%
SFE,1713,5,RDSF,1,0.72
SFE,1713,5,RDSF,2,2
SFE,1713,5,HFLUX,1,%Q1%
SFE,1715,3,RDSF,1,0.5
SFE,1715,3,RDSF,2,1
SFE,1716,5,RDSF,1,0.5
SFE,1716,5,RDSF,2,1
SFE,1718,3,RDSF,1,0.72
SFE,1718,3,RDSF,2,2
SFE,1718,3,HFLUX,1,%Q2%
SFE,1719,5,RDSF,1,0.72
SFE,1719,5,RDSF,2,2
SFE,1719,5,HFLUX,1,%Q1%
SFE,1720,4,RDSF,1,0.5
SFE,1720,4,RDSF,2,1
SFE,1721,3,RDSF,1,0.5
SFE,1721,3,RDSF,2,1
SFE,1721,4,RDSF,1,0.5
SFE,1721,4,RDSF,2,1
SFE,1722,4,RDSF,1,0.5
SFE,1722,4,RDSF,2,1
SFE,1722,5,RDSF,1,0.5
SFE,1722,5,RDSF,2,1
SFE,1723,4,RDSF,1,0.5
SFE,1723,4,RDSF,2,1
SFE,1724,3,RDSF,1,0.72
SFE,1724,3,RDSF,2,2
SFE,1724,3,HFLUX,1,%Q2%
SFE,1725,3,RDSF,1,0.5
SFE,1725,3,RDSF,2,1
SFE,1725,5,RDSF,1,0.72
SFE,1725,5,RDSF,2,2
SFE,1725,5,HFLUX,1,%Q1%
SFE,1726,3,RDSF,1,0.72
SFE,1726,3,RDSF,2,2
SFE,1726,3,HFLUX,1,%Q2%
SFE,1726,5,RDSF,1,0.5
SFE,1726,5,RDSF,2,1
SFE,1727,3,RDSF,1,0.5
SFE,1727,3,RDSF,2,1
SFE,1727,5,RDSF,1,0.72
SFE,1727,5,RDSF,2,2
SFE,1727,5,HFLUX,1,%Q1%
SFE,1728,2,RDSF,1,0.5
SFE,1728,2,RDSF,2,1
SFE,1728,3,RDSF,1,0.5
SFE,1728,3,RDSF,2,1
SFE,1728,4,RDSF,1,0.5
SFE,1728,4,RDSF,2,1
SFE,1728,5,RDSF,1,0.5
SFE,1728,5,RDSF,2,1
SFE,1729,2,RDSF,1,0.5
SFE,1729,2,RDSF,2,1
SFE,1729,3,RDSF,1,0.5
SFE,1729,3,RDSF,2,1
SFE,1729,4,RDSF,1,0.5
SFE,1729,4,RDSF,2,1
SFE,1729,5,RDSF,1,0.5
SFE,1729,5,RDSF,2,1
SFE,1730,3,RDSF,1,0.72
SFE,1730,3,RDSF,2,2
SFE,1730,3,HFLUX,1,%Q2%
SFE,1730,5,RDSF,1,0.5
SFE,1730,5,RDSF,2,1
SFE,1731,3,RDSF,1,0.5
SFE,1731,3,RDSF,2,1
SFE,1731,5,RDSF,1,0.72
SFE,1731,5,RDSF,2,2
SFE,1731,5,HFLUX,1,%Q1%
SFE,1732,3,RDSF,1,0.72
SFE,1732,3,RDSF,2,2
SFE,1732,3,HFLUX,1,%Q2%
SFE,1732,5,RDSF,1,0.5
SFE,1732,5,RDSF,2,1
SFE,1733,3,RDSF,1,0.5
SFE,1733,3,RDSF,2,1
SFE,1733,5,RDSF,1,0.72
SFE,1733,5,RDSF,2,2
SFE,1733,5,HFLUX,1,%Q1%
SFE,1734,3,RDSF,1,0.72
SFE,1734,3,RDSF,2,2
SFE,1734,3,HFLUX,1,%Q2%
SFE,1734,5,RDSF,1,0.5
SFE,1734,5,RDSF,2,1
SFE,1735,3,RDSF,1,0.5
SFE,1735,3,RDSF,2,1
SFE,1735,5,RDSF,1,0.72
SFE,1735,5,RDSF,2,2
SFE,1735,5,HFLUX,1,%Q1%
SFE,1736,3,RDSF,1,0.72
SFE,1736,3,RDSF,2,2
SFE,1736,3,HFLUX,1,%Q2%
SFE,1736,5,RDSF,1,0.5
SFE,1736,5,RDSF,2,1
SFE,1737,3,RDSF,1,0.5
SFE,1737,3,RDSF,2,1
SFE,1737,5,RDSF,1,0.72
SFE,1737,5,RDSF,2,2
SFE,1737,5,HFLUX,1,%Q1%
SFE,1738,3,RDSF,1,0.72
SFE,1738,3,RDSF,2,2
SFE,1738,3,HFLUX,1,%Q2%
SFE,1738,5,RDSF,1,0.5
SFE,1738,5,RDSF,2,1
SFE,1739,3,RDSF,1,0.5
SFE,1739,3,RDSF,2,1
SFE,1739,5,RDSF,1,0.72
SFE,1739,5,RDSF,2,2
SFE,1739,5,HFLUX,1,%Q1%
SFE,1740,3,RDSF,1,0.72
SFE,1740,3,RDSF,2,2
SFE,1740,3,HFLUX,1,%Q2%
SFE,1740,5,RDSF,1,0.5
SFE,1740,5,RDSF,2,1
SFE,1741,3,RDSF,1,0.5
SFE,1741,3,RDSF,2,1
SFE,1741,5,RDSF,1,0.72
SFE,1741,5,RDSF,2,2
SFE,1741,5,HFLUX,1,%Q1%
SFE,1742,3,RDSF,1,0.72
SFE,1742,3,RDSF,2,2
SFE,1742,3,HFLUX,1,%Q2%
SFE,1742,5,RDSF,1,0.5
SFE,1742,5,RDSF,2,1
SFE,1743,3,RDSF,1,0.5
SFE,1743,3,RDSF,2,1
SFE,1743,5,RDSF,1,0.72
SFE,1743,5,RDSF,2,2
SFE,1743,5,HFLUX,1,%Q1%
SFE,1744,2,RDSF,1,0.5
SFE,1744,2,RDSF,2,1
SFE,1744,3,RDSF,1,0.5
SFE,1744,3,RDSF,2,1
SFE,1744,4,RDSF,1,0.5
SFE,1744,4,RDSF,2,1
SFE,1744,5,RDSF,1,0.5
SFE,1744,5,RDSF,2,1
SFE,1745,2,RDSF,1,0.5
SFE,1745,2,RDSF,2,1
SFE,1745,3,RDSF,1,0.5
SFE,1745,3,RDSF,2,1
SFE,1745,4,RDSF,1,0.5
SFE,1745,4,RDSF,2,1
SFE,1745,5,RDSF,1,0.5
SFE,1745,5,RDSF,2,1
SFE,1746,3,RDSF,1,0.72
SFE,1746,3,RDSF,2,2
SFE,1746,3,HFLUX,1,%Q2%
SFE,1746,5,RDSF,1,0.5
SFE,1746,5,RDSF,2,1
SFE,1747,3,RDSF,1,0.5
SFE,1747,3,RDSF,2,1
SFE,1747,5,RDSF,1,0.72
SFE,1747,5,RDSF,2,2
SFE,1747,5,HFLUX,1,%Q1%
SFE,1748,3,RDSF,1,0.72
SFE,1748,3,RDSF,2,2
SFE,1748,3,HFLUX,1,%Q2%
SFE,1748,5,RDSF,1,0.5
SFE,1748,5,RDSF,2,1
SFE,1749,5,RDSF,1,0.72
SFE,1749,5,RDSF,2,2
SFE,1749,5,HFLUX,1,%Q1%
SFE,1750,2,RDSF,1,0.5
SFE,1750,2,RDSF,2,1
SFE,1751,2,RDSF,1,0.5
SFE,1751,2,RDSF,2,1
SFE,1751,3,RDSF,1,0.5
SFE,1751,3,RDSF,2,1
SFE,1752,2,RDSF,1,0.5
SFE,1752,2,RDSF,2,1
SFE,1752,5,RDSF,1,0.5
SFE,1752,5,RDSF,2,1
SFE,1753,2,RDSF,1,0.5
SFE,1753,2,RDSF,2,1
SFE,1754,3,RDSF,1,0.72
SFE,1754,3,RDSF,2,2
SFE,1754,3,HFLUX,1,%Q2%
SFE,1755,5,RDSF,1,0.72
SFE,1755,5,RDSF,2,2
SFE,1755,5,HFLUX,1,%Q1%
SFE,1757,3,RDSF,1,0.5
SFE,1757,3,RDSF,2,1
SFE,1758,5,RDSF,1,0.5
SFE,1758,5,RDSF,2,1
SFE,1760,3,RDSF,1,0.72
SFE,1760,3,RDSF,2,2
SFE,1760,3,HFLUX,1,%Q2%
SFE,1761,4,RDSF,1,0.72
SFE,1761,4,RDSF,2,2
SFE,1761,4,HFLUX,1,%Q4%
SFE,1761,5,RDSF,1,0.72
SFE,1761,5,RDSF,2,2
SFE,1761,5,HFLUX,1,%Q1%
SFE,1762,4,RDSF,1,0.72
SFE,1762,4,RDSF,2,2
SFE,1762,4,HFLUX,1,%Q4%
SFE,1763,4,RDSF,1,0.72
SFE,1763,4,RDSF,2,2
SFE,1763,4,HFLUX,1,%Q4%
SFE,1764,2,RDSF,1,0.5
SFE,1764,2,RDSF,2,1
SFE,1764,4,RDSF,1,0.72
SFE,1764,4,RDSF,2,2
SFE,1764,4,HFLUX,1,%Q4%
SFE,1765,2,RDSF,1,0.5
SFE,1765,2,RDSF,2,1
SFE,1765,4,RDSF,1,0.72
SFE,1765,4,RDSF,2,2
SFE,1765,4,HFLUX,1,%Q4%
SFE,1766,2,RDSF,1,0.5
SFE,1766,2,RDSF,2,1
SFE,1766,4,RDSF,1,0.72
SFE,1766,4,RDSF,2,2
SFE,1766,4,HFLUX,1,%Q4%
SFE,1767,2,RDSF,1,0.5
SFE,1767,2,RDSF,2,1
SFE,1767,4,RDSF,1,0.72
SFE,1767,4,RDSF,2,2
SFE,1767,4,HFLUX,1,%Q4%
SFE,1768,2,RDSF,1,0.5
SFE,1768,2,RDSF,2,1
SFE,1768,4,RDSF,1,0.72
SFE,1768,4,RDSF,2,2
SFE,1768,4,HFLUX,1,%Q4%
SFE,1769,2,RDSF,1,0.5
SFE,1769,2,RDSF,2,1
SFE,1769,4,RDSF,1,0.72
SFE,1769,4,RDSF,2,2
SFE,1769,4,HFLUX,1,%Q4%
SFE,1770,2,RDSF,1,0.5
SFE,1770,2,RDSF,2,1
SFE,1770,4,RDSF,1,0.72
SFE,1770,4,RDSF,2,2
SFE,1770,4,HFLUX,1,%Q4%
SFE,1771,2,RDSF,1,0.5
SFE,1771,2,RDSF,2,1
SFE,1771,4,RDSF,1,0.72
SFE,1771,4,RDSF,2,2
SFE,1771,4,HFLUX,1,%Q4%
SFE,1772,2,RDSF,1,0.5
SFE,1772,2,RDSF,2,1
SFE,1772,4,RDSF,1,0.72
SFE,1772,4,RDSF,2,2
SFE,1772,4,HFLUX,1,%Q4%
SFE,1773,2,RDSF,1,0.5
SFE,1773,2,RDSF,2,1
SFE,1773,4,RDSF,1,0.72
SFE,1773,4,RDSF,2,2
SFE,1773,4,HFLUX,1,%Q4%
SFE,1774,4,RDSF,1,0.72
SFE,1774,4,RDSF,2,2
SFE,1774,4,HFLUX,1,%Q4%
SFE,1775,4,RDSF,1,0.72
SFE,1775,4,RDSF,2,2
SFE,1775,4,HFLUX,1,%Q4%
SFE,1776,3,RDSF,1,0.72
SFE,1776,3,RDSF,2,2
SFE,1776,3,HFLUX,1,%Q2%
SFE,1776,4,RDSF,1,0.72
SFE,1776,4,RDSF,2,2
SFE,1776,4,HFLUX,1,%Q4%
SFE,1777,2,RDSF,1,0.72
SFE,1777,2,RDSF,2,2
SFE,1777,2,HFLUX,1,%Q3%
SFE,1777,5,RDSF,1,0.72
SFE,1777,5,RDSF,2,2
SFE,1777,5,HFLUX,1,%Q1%
SFE,1778,2,RDSF,1,0.72
SFE,1778,2,RDSF,2,2
SFE,1778,2,HFLUX,1,%Q3%
SFE,1779,2,RDSF,1,0.72
SFE,1779,2,RDSF,2,2
SFE,1779,2,HFLUX,1,%Q3%
SFE,1780,2,RDSF,1,0.72
SFE,1780,2,RDSF,2,2
SFE,1780,2,HFLUX,1,%Q3%
SFE,1781,2,RDSF,1,0.72
SFE,1781,2,RDSF,2,2
SFE,1781,2,HFLUX,1,%Q3%
SFE,1782,2,RDSF,1,0.72
SFE,1782,2,RDSF,2,2
SFE,1782,2,HFLUX,1,%Q3%
SFE,1783,2,RDSF,1,0.72
SFE,1783,2,RDSF,2,2
SFE,1783,2,HFLUX,1,%Q3%
SFE,1784,2,RDSF,1,0.72
SFE,1784,2,RDSF,2,2
SFE,1784,2,HFLUX,1,%Q3%
SFE,1785,2,RDSF,1,0.72
SFE,1785,2,RDSF,2,2
SFE,1785,2,HFLUX,1,%Q3%
SFE,1786,2,RDSF,1,0.72
SFE,1786,2,RDSF,2,2
SFE,1786,2,HFLUX,1,%Q3%
SFE,1787,2,RDSF,1,0.72
SFE,1787,2,RDSF,2,2
SFE,1787,2,HFLUX,1,%Q3%
SFE,1788,2,RDSF,1,0.72
SFE,1788,2,RDSF,2,2
SFE,1788,2,HFLUX,1,%Q3%
SFE,1789,2,RDSF,1,0.72
SFE,1789,2,RDSF,2,2
SFE,1789,2,HFLUX,1,%Q3%
SFE,1790,2,RDSF,1,0.72
SFE,1790,2,RDSF,2,2
SFE,1790,2,HFLUX,1,%Q3%
SFE,1791,2,RDSF,1,0.72
SFE,1791,2,RDSF,2,2
SFE,1791,2,HFLUX,1,%Q3%
SFE,1792,2,RDSF,1,0.72
SFE,1792,2,RDSF,2,2
SFE,1792,2,HFLUX,1,%Q3%
SFE,1792,3,RDSF,1,0.72
SFE,1792,3,RDSF,2,2
SFE,1792,3,HFLUX,1,%Q2%
SFE,1793,5,RDSF,1,0.72
SFE,1793,5,RDSF,2,2
SFE,1793,5,HFLUX,1,%Q1%
SFE,1796,1,RDSF,1,0.5
SFE,1796,1,RDSF,2,1
SFE,1797,1,RDSF,1,0.5
SFE,1797,1,RDSF,2,1
SFE,1798,1,RDSF,1,0.5
SFE,1798,1,RDSF,2,1
SFE,1799,1,RDSF,1,0.5
SFE,1799,1,RDSF,2,1
SFE,1800,1,RDSF,1,0.5
SFE,1800,1,RDSF,2,1
SFE,1801,1,RDSF,1,0.5
SFE,1801,1,RDSF,2,1
SFE,1802,1,RDSF,1,0.5
SFE,1802,1,RDSF,2,1
SFE,1803,1,RDSF,1,0.5
SFE,1803,1,RDSF,2,1
SFE,1804,1,RDSF,1,0.5
SFE,1804,1,RDSF,2,1
SFE,1805,1,RDSF,1,0.5
SFE,1805,1,RDSF,2,1
SFE,1808,3,RDSF,1,0.72
SFE,1808,3,RDSF,2,2
SFE,1808,3,HFLUX,1,%Q2%
SFE,1809,5,RDSF,1,0.72
SFE,1809,5,RDSF,2,2
SFE,1809,5,HFLUX,1,%Q1%
SFE,1812,1,RDSF,1,0.5
SFE,1812,1,RDSF,2,1
SFE,1812,4,RDSF,1,0.5
SFE,1812,4,RDSF,2,1
SFE,1813,1,RDSF,1,0.5
SFE,1813,1,RDSF,2,1
SFE,1813,4,RDSF,1,0.5
SFE,1813,4,RDSF,2,1
SFE,1814,1,RDSF,1,0.5
SFE,1814,1,RDSF,2,1
SFE,1814,4,RDSF,1,0.5
SFE,1814,4,RDSF,2,1
SFE,1815,1,RDSF,1,0.5
SFE,1815,1,RDSF,2,1
SFE,1815,4,RDSF,1,0.5
SFE,1815,4,RDSF,2,1
SFE,1816,1,RDSF,1,0.5
SFE,1816,1,RDSF,2,1
SFE,1816,4,RDSF,1,0.5
SFE,1816,4,RDSF,2,1
SFE,1817,1,RDSF,1,0.5
SFE,1817,1,RDSF,2,1
SFE,1817,4,RDSF,1,0.5
SFE,1817,4,RDSF,2,1
SFE,1818,1,RDSF,1,0.5
SFE,1818,1,RDSF,2,1
SFE,1818,4,RDSF,1,0.5
SFE,1818,4,RDSF,2,1
SFE,1819,1,RDSF,1,0.5
SFE,1819,1,RDSF,2,1
SFE,1819,4,RDSF,1,0.5
SFE,1819,4,RDSF,2,1
SFE,1820,1,RDSF,1,0.5
SFE,1820,1,RDSF,2,1
SFE,1820,4,RDSF,1,0.5
SFE,1820,4,RDSF,2,1
SFE,1821,1,RDSF,1,0.5
SFE,1821,1,RDSF,2,1
SFE,1821,4,RDSF,1,0.5
SFE,1821,4,RDSF,2,1
SFE,1824,3,RDSF,1,0.72
SFE,1824,3,RDSF,2,2
SFE,1824,3,HFLUX,1,%Q2%
SFE,1825,5,RDSF,1,0.72
SFE,1825,5,RDSF,2,2
SFE,1825,5,HFLUX,1,%Q1%
SFE,1826,1,RDSF,1,0.5
SFE,1826,1,RDSF,2,1
SFE,1827,1,RDSF,1,0.5
SFE,1827,1,RDSF,2,1
SFE,1827,3,RDSF,1,0.5
SFE,1827,3,RDSF,2,1
SFE,1828,1,RDSF,1,0.5
SFE,1828,1,RDSF,2,1
SFE,1828,5,RDSF,1,0.5
SFE,1828,5,RDSF,2,1
SFE,1829,1,RDSF,1,0.5
SFE,1829,1,RDSF,2,1
SFE,1830,3,RDSF,1,0.72
SFE,1830,3,RDSF,2,2
SFE,1830,3,HFLUX,1,%Q2%
SFE,1831,5,RDSF,1,0.72
SFE,1831,5,RDSF,2,2
SFE,1831,5,HFLUX,1,%Q1%
SFE,1832,1,RDSF,1,0.5
SFE,1832,1,RDSF,2,1
SFE,1833,1,RDSF,1,0.5
SFE,1833,1,RDSF,2,1
SFE,1833,3,RDSF,1,0.5
SFE,1833,3,RDSF,2,1
SFE,1834,2,RDSF,1,0.5
SFE,1834,2,RDSF,2,1
SFE,1834,3,RDSF,1,0.5
SFE,1834,3,RDSF,2,1
SFE,1834,4,RDSF,1,0.5
SFE,1834,4,RDSF,2,1
SFE,1834,5,RDSF,1,0.5
SFE,1834,5,RDSF,2,1
SFE,1835,2,RDSF,1,0.5
SFE,1835,2,RDSF,2,1
SFE,1835,3,RDSF,1,0.5
SFE,1835,3,RDSF,2,1
SFE,1835,4,RDSF,1,0.5
SFE,1835,4,RDSF,2,1
SFE,1835,5,RDSF,1,0.5
SFE,1835,5,RDSF,2,1
SFE,1836,1,RDSF,1,0.5
SFE,1836,1,RDSF,2,1
SFE,1836,5,RDSF,1,0.5
SFE,1836,5,RDSF,2,1
SFE,1837,1,RDSF,1,0.5
SFE,1837,1,RDSF,2,1
SFE,1838,3,RDSF,1,0.72
SFE,1838,3,RDSF,2,2
SFE,1838,3,HFLUX,1,%Q2%
SFE,1839,5,RDSF,1,0.72
SFE,1839,5,RDSF,2,2
SFE,1839,5,HFLUX,1,%Q1%
SFE,1840,1,RDSF,1,0.5
SFE,1840,1,RDSF,2,1
SFE,1841,1,RDSF,1,0.5
SFE,1841,1,RDSF,2,1
SFE,1841,3,RDSF,1,0.5
SFE,1841,3,RDSF,2,1
SFE,1842,1,RDSF,1,0.5
SFE,1842,1,RDSF,2,1
SFE,1842,5,RDSF,1,0.5
SFE,1842,5,RDSF,2,1
SFE,1843,1,RDSF,1,0.5
SFE,1843,1,RDSF,2,1
SFE,1844,3,RDSF,1,0.72
SFE,1844,3,RDSF,2,2
SFE,1844,3,HFLUX,1,%Q2%
SFE,1845,5,RDSF,1,0.72
SFE,1845,5,RDSF,2,2
SFE,1845,5,HFLUX,1,%Q1%
SFE,1846,1,RDSF,1,0.5
SFE,1846,1,RDSF,2,1
SFE,1847,1,RDSF,1,0.5
SFE,1847,1,RDSF,2,1
SFE,1847,3,RDSF,1,0.5
SFE,1847,3,RDSF,2,1
SFE,1848,1,RDSF,1,0.5
SFE,1848,1,RDSF,2,1
SFE,1848,5,RDSF,1,0.5
SFE,1848,5,RDSF,2,1
SFE,1849,1,RDSF,1,0.5
SFE,1849,1,RDSF,2,1
SFE,1850,3,RDSF,1,0.72
SFE,1850,3,RDSF,2,2
SFE,1850,3,HFLUX,1,%Q2%
SFE,1851,5,RDSF,1,0.72
SFE,1851,5,RDSF,2,2
SFE,1851,5,HFLUX,1,%Q1%
SFE,1852,1,RDSF,1,0.5
SFE,1852,1,RDSF,2,1
SFE,1853,1,RDSF,1,0.5
SFE,1853,1,RDSF,2,1
SFE,1853,3,RDSF,1,0.5
SFE,1853,3,RDSF,2,1
SFE,1854,1,RDSF,1,0.5
SFE,1854,1,RDSF,2,1
SFE,1854,5,RDSF,1,0.5
SFE,1854,5,RDSF,2,1
SFE,1855,1,RDSF,1,0.5
SFE,1855,1,RDSF,2,1
SFE,1856,3,RDSF,1,0.72
SFE,1856,3,RDSF,2,2
SFE,1856,3,HFLUX,1,%Q2%
SFE,1857,5,RDSF,1,0.72
SFE,1857,5,RDSF,2,2
SFE,1857,5,HFLUX,1,%Q1%
SFE,1858,1,RDSF,1,0.5
SFE,1858,1,RDSF,2,1
SFE,1859,1,RDSF,1,0.5
SFE,1859,1,RDSF,2,1
SFE,1859,3,RDSF,1,0.5
SFE,1859,3,RDSF,2,1
SFE,1860,1,RDSF,1,0.5
SFE,1860,1,RDSF,2,1
SFE,1860,5,RDSF,1,0.5
SFE,1860,5,RDSF,2,1
SFE,1861,1,RDSF,1,0.5
SFE,1861,1,RDSF,2,1
SFE,1862,3,RDSF,1,0.72
SFE,1862,3,RDSF,2,2
SFE,1862,3,HFLUX,1,%Q2%
SFE,1863,5,RDSF,1,0.72
SFE,1863,5,RDSF,2,2
SFE,1863,5,HFLUX,1,%Q1%
SFE,1864,1,RDSF,1,0.5
SFE,1864,1,RDSF,2,1
SFE,1865,1,RDSF,1,0.5
SFE,1865,1,RDSF,2,1
SFE,1865,3,RDSF,1,0.5
SFE,1865,3,RDSF,2,1
SFE,1866,1,RDSF,1,0.5
SFE,1866,1,RDSF,2,1
SFE,1866,5,RDSF,1,0.5
SFE,1866,5,RDSF,2,1
SFE,1867,1,RDSF,1,0.5
SFE,1867,1,RDSF,2,1
SFE,1868,3,RDSF,1,0.72
SFE,1868,3,RDSF,2,2
SFE,1868,3,HFLUX,1,%Q2%
SFE,1869,5,RDSF,1,0.72
SFE,1869,5,RDSF,2,2
SFE,1869,5,HFLUX,1,%Q1%
SFE,1870,1,RDSF,1,0.5
SFE,1870,1,RDSF,2,1
SFE,1871,1,RDSF,1,0.5
SFE,1871,1,RDSF,2,1
SFE,1871,3,RDSF,1,0.5
SFE,1871,3,RDSF,2,1
SFE,1872,1,RDSF,1,0.5
SFE,1872,1,RDSF,2,1
SFE,1872,5,RDSF,1,0.5
SFE,1872,5,RDSF,2,1
SFE,1873,1,RDSF,1,0.5
SFE,1873,1,RDSF,2,1
SFE,1874,3,RDSF,1,0.72
SFE,1874,3,RDSF,2,2
SFE,1874,3,HFLUX,1,%Q2%
SFE,1875,5,RDSF,1,0.72
SFE,1875,5,RDSF,2,2
SFE,1875,5,HFLUX,1,%Q1%
SFE,1876,1,RDSF,1,0.5
SFE,1876,1,RDSF,2,1
SFE,1877,1,RDSF,1,0.5
SFE,1877,1,RDSF,2,1
SFE,1877,3,RDSF,1,0.5
SFE,1877,3,RDSF,2,1
SFE,1878,2,RDSF,1,0.5
SFE,1878,2,RDSF,2,1
SFE,1878,3,RDSF,1,0.5
SFE,1878,3,RDSF,2,1
SFE,1878,4,RDSF,1,0.5
SFE,1878,4,RDSF,2,1
SFE,1878,5,RDSF,1,0.5
SFE,1878,5,RDSF,2,1
SFE,1879,2,RDSF,1,0.5
SFE,1879,2,RDSF,2,1
SFE,1879,3,RDSF,1,0.5
SFE,1879,3,RDSF,2,1
SFE,1879,4,RDSF,1,0.5
SFE,1879,4,RDSF,2,1
SFE,1879,5,RDSF,1,0.5
SFE,1879,5,RDSF,2,1
SFE,1880,1,RDSF,1,0.5
SFE,1880,1,RDSF,2,1
SFE,1880,5,RDSF,1,0.5
SFE,1880,5,RDSF,2,1
SFE,1881,1,RDSF,1,0.5
SFE,1881,1,RDSF,2,1
SFE,1882,3,RDSF,1,0.72
SFE,1882,3,RDSF,2,2
SFE,1882,3,HFLUX,1,%Q2%
SFE,1883,5,RDSF,1,0.72
SFE,1883,5,RDSF,2,2
SFE,1883,5,HFLUX,1,%Q1%
SFE,1884,1,RDSF,1,0.5
SFE,1884,1,RDSF,2,1
SFE,1885,1,RDSF,1,0.5
SFE,1885,1,RDSF,2,1
SFE,1885,3,RDSF,1,0.5
SFE,1885,3,RDSF,2,1
SFE,1886,1,RDSF,1,0.5
SFE,1886,1,RDSF,2,1
SFE,1886,5,RDSF,1,0.5
SFE,1886,5,RDSF,2,1
SFE,1887,1,RDSF,1,0.5
SFE,1887,1,RDSF,2,1
SFE,1888,3,RDSF,1,0.72
SFE,1888,3,RDSF,2,2
SFE,1888,3,HFLUX,1,%Q2%
SFE,1889,5,RDSF,1,0.72
SFE,1889,5,RDSF,2,2
SFE,1889,5,HFLUX,1,%Q1%
SFE,1892,1,RDSF,1,0.5
SFE,1892,1,RDSF,2,1
SFE,1892,2,RDSF,1,0.5
SFE,1892,2,RDSF,2,1
SFE,1893,1,RDSF,1,0.5
SFE,1893,1,RDSF,2,1
SFE,1893,2,RDSF,1,0.5
SFE,1893,2,RDSF,2,1
SFE,1894,1,RDSF,1,0.5
SFE,1894,1,RDSF,2,1
SFE,1894,2,RDSF,1,0.5
SFE,1894,2,RDSF,2,1
SFE,1895,1,RDSF,1,0.5
SFE,1895,1,RDSF,2,1
SFE,1895,2,RDSF,1,0.5
SFE,1895,2,RDSF,2,1
SFE,1896,1,RDSF,1,0.5
SFE,1896,1,RDSF,2,1
SFE,1896,2,RDSF,1,0.5
SFE,1896,2,RDSF,2,1
SFE,1897,1,RDSF,1,0.5
SFE,1897,1,RDSF,2,1
SFE,1897,2,RDSF,1,0.5
SFE,1897,2,RDSF,2,1
SFE,1898,1,RDSF,1,0.5
SFE,1898,1,RDSF,2,1
SFE,1898,2,RDSF,1,0.5
SFE,1898,2,RDSF,2,1
SFE,1899,1,RDSF,1,0.5
SFE,1899,1,RDSF,2,1
SFE,1899,2,RDSF,1,0.5
SFE,1899,2,RDSF,2,1
SFE,1900,1,RDSF,1,0.5
SFE,1900,1,RDSF,2,1
SFE,1900,2,RDSF,1,0.5
SFE,1900,2,RDSF,2,1
SFE,1901,1,RDSF,1,0.5
SFE,1901,1,RDSF,2,1
SFE,1901,2,RDSF,1,0.5
SFE,1901,2,RDSF,2,1
SFE,1904,3,RDSF,1,0.72
SFE,1904,3,RDSF,2,2
SFE,1904,3,HFLUX,1,%Q2%
SFE,1905,5,RDSF,1,0.72
SFE,1905,5,RDSF,2,2
SFE,1905,5,HFLUX,1,%Q1%
SFE,1908,1,RDSF,1,0.5
SFE,1908,1,RDSF,2,1
SFE,1909,1,RDSF,1,0.5
SFE,1909,1,RDSF,2,1
SFE,1910,1,RDSF,1,0.5
SFE,1910,1,RDSF,2,1
SFE,1911,1,RDSF,1,0.5
SFE,1911,1,RDSF,2,1
SFE,1912,1,RDSF,1,0.5
SFE,1912,1,RDSF,2,1
SFE,1913,1,RDSF,1,0.5
SFE,1913,1,RDSF,2,1
SFE,1914,1,RDSF,1,0.5
SFE,1914,1,RDSF,2,1
SFE,1915,1,RDSF,1,0.5
SFE,1915,1,RDSF,2,1
SFE,1916,1,RDSF,1,0.5
SFE,1916,1,RDSF,2,1
SFE,1917,1,RDSF,1,0.5
SFE,1917,1,RDSF,2,1
SFE,1920,3,RDSF,1,0.72
SFE,1920,3,RDSF,2,2
SFE,1920,3,HFLUX,1,%Q2%
SFE,1921,4,RDSF,1,0.72
SFE,1921,4,RDSF,2,2
SFE,1921,4,HFLUX,1,%Q4%
SFE,1921,5,RDSF,1,0.72
SFE,1921,5,RDSF,2,2
SFE,1921,5,HFLUX,1,%Q1%
SFE,1922,4,RDSF,1,0.72
SFE,1922,4,RDSF,2,2
SFE,1922,4,HFLUX,1,%Q4%
SFE,1923,4,RDSF,1,0.72
SFE,1923,4,RDSF,2,2
SFE,1923,4,HFLUX,1,%Q4%
SFE,1924,4,RDSF,1,0.72
SFE,1924,4,RDSF,2,2
SFE,1924,4,HFLUX,1,%Q4%
SFE,1925,4,RDSF,1,0.72
SFE,1925,4,RDSF,2,2
SFE,1925,4,HFLUX,1,%Q4%
SFE,1926,4,RDSF,1,0.72
SFE,1926,4,RDSF,2,2
SFE,1926,4,HFLUX,1,%Q4%
SFE,1927,4,RDSF,1,0.72
SFE,1927,4,RDSF,2,2
SFE,1927,4,HFLUX,1,%Q4%
SFE,1928,4,RDSF,1,0.72
SFE,1928,4,RDSF,2,2
SFE,1928,4,HFLUX,1,%Q4%
SFE,1929,4,RDSF,1,0.72
SFE,1929,4,RDSF,2,2
SFE,1929,4,HFLUX,1,%Q4%
SFE,1930,4,RDSF,1,0.72
SFE,1930,4,RDSF,2,2
SFE,1930,4,HFLUX,1,%Q4%
SFE,1931,4,RDSF,1,0.72
SFE,1931,4,RDSF,2,2
SFE,1931,4,HFLUX,1,%Q4%
SFE,1932,4,RDSF,1,0.72
SFE,1932,4,RDSF,2,2
SFE,1932,4,HFLUX,1,%Q4%
SFE,1933,4,RDSF,1,0.72
SFE,1933,4,RDSF,2,2
SFE,1933,4,HFLUX,1,%Q4%
SFE,1934,4,RDSF,1,0.72
SFE,1934,4,RDSF,2,2
SFE,1934,4,HFLUX,1,%Q4%
SFE,1935,4,RDSF,1,0.72
SFE,1935,4,RDSF,2,2
SFE,1935,4,HFLUX,1,%Q4%
SFE,1936,3,RDSF,1,0.72
SFE,1936,3,RDSF,2,2
SFE,1936,3,HFLUX,1,%Q2%
SFE,1936,4,RDSF,1,0.72
SFE,1936,4,RDSF,2,2
SFE,1936,4,HFLUX,1,%Q4%
SFE,1937,2,RDSF,1,0.72
SFE,1937,2,RDSF,2,2
SFE,1937,2,HFLUX,1,%Q3%
SFE,1937,5,RDSF,1,0.72
SFE,1937,5,RDSF,2,2
SFE,1937,5,HFLUX,1,%Q1%
SFE,1937,6,RDSF,1,0.72
SFE,1937,6,RDSF,2,2
SFE,1937,6,HFLUX,1,%Q6%
SFE,1938,2,RDSF,1,0.72
SFE,1938,2,RDSF,2,2
SFE,1938,2,HFLUX,1,%Q3%
SFE,1938,6,RDSF,1,0.72
SFE,1938,6,RDSF,2,2
SFE,1938,6,HFLUX,1,%Q6%
SFE,1939,2,RDSF,1,0.72
SFE,1939,2,RDSF,2,2
SFE,1939,2,HFLUX,1,%Q3%
SFE,1939,6,RDSF,1,0.72
SFE,1939,6,RDSF,2,2
SFE,1939,6,HFLUX,1,%Q6%
SFE,1940,2,RDSF,1,0.72
SFE,1940,2,RDSF,2,2
SFE,1940,2,HFLUX,1,%Q3%
SFE,1940,6,RDSF,1,0.72
SFE,1940,6,RDSF,2,2
SFE,1940,6,HFLUX,1,%Q6%
SFE,1941,2,RDSF,1,0.72
SFE,1941,2,RDSF,2,2
SFE,1941,2,HFLUX,1,%Q3%
SFE,1941,6,RDSF,1,0.72
SFE,1941,6,RDSF,2,2
SFE,1941,6,HFLUX,1,%Q6%
SFE,1942,2,RDSF,1,0.72
SFE,1942,2,RDSF,2,2
SFE,1942,2,HFLUX,1,%Q3%
SFE,1942,6,RDSF,1,0.72
SFE,1942,6,RDSF,2,2
SFE,1942,6,HFLUX,1,%Q6%
SFE,1943,2,RDSF,1,0.72
SFE,1943,2,RDSF,2,2
SFE,1943,2,HFLUX,1,%Q3%
SFE,1943,6,RDSF,1,0.72
SFE,1943,6,RDSF,2,2
SFE,1943,6,HFLUX,1,%Q6%
SFE,1944,2,RDSF,1,0.72
SFE,1944,2,RDSF,2,2
SFE,1944,2,HFLUX,1,%Q3%
SFE,1944,6,RDSF,1,0.72
SFE,1944,6,RDSF,2,2
SFE,1944,6,HFLUX,1,%Q6%
SFE,1945,2,RDSF,1,0.72
SFE,1945,2,RDSF,2,2
SFE,1945,2,HFLUX,1,%Q3%
SFE,1945,6,RDSF,1,0.72
SFE,1945,6,RDSF,2,2
SFE,1945,6,HFLUX,1,%Q6%
SFE,1946,2,RDSF,1,0.72
SFE,1946,2,RDSF,2,2
SFE,1946,2,HFLUX,1,%Q3%
SFE,1946,6,RDSF,1,0.72
SFE,1946,6,RDSF,2,2
SFE,1946,6,HFLUX,1,%Q6%
SFE,1947,2,RDSF,1,0.72
SFE,1947,2,RDSF,2,2
SFE,1947,2,HFLUX,1,%Q3%
SFE,1947,6,RDSF,1,0.72
SFE,1947,6,RDSF,2,2
SFE,1947,6,HFLUX,1,%Q6%
SFE,1948,2,RDSF,1,0.72
SFE,1948,2,RDSF,2,2
SFE,1948,2,HFLUX,1,%Q3%
SFE,1948,6,RDSF,1,0.72
SFE,1948,6,RDSF,2,2
SFE,1948,6,HFLUX,1,%Q6%
SFE,1949,2,RDSF,1,0.72
SFE,1949,2,RDSF,2,2
SFE,1949,2,HFLUX,1,%Q3%
SFE,1949,6,RDSF,1,0.72
SFE,1949,6,RDSF,2,2
SFE,1949,6,HFLUX,1,%Q6%
SFE,1950,2,RDSF,1,0.72
SFE,1950,2,RDSF,2,2
SFE,1950,2,HFLUX,1,%Q3%
SFE,1950,6,RDSF,1,0.72
SFE,1950,6,RDSF,2,2
SFE,1950,6,HFLUX,1,%Q6%
SFE,1951,2,RDSF,1,0.72
SFE,1951,2,RDSF,2,2
SFE,1951,2,HFLUX,1,%Q3%
SFE,1951,6,RDSF,1,0.72
SFE,1951,6,RDSF,2,2
SFE,1951,6,HFLUX,1,%Q6%
SFE,1952,2,RDSF,1,0.72
SFE,1952,2,RDSF,2,2
SFE,1952,2,HFLUX,1,%Q3%
SFE,1952,3,RDSF,1,0.72
SFE,1952,3,RDSF,2,2
SFE,1952,3,HFLUX,1,%Q2%
SFE,1952,6,RDSF,1,0.72
SFE,1952,6,RDSF,2,2
SFE,1952,6,HFLUX,1,%Q6%
SFE,1953,5,RDSF,1,0.72
SFE,1953,5,RDSF,2,2
SFE,1953,5,HFLUX,1,%Q1%
SFE,1953,6,RDSF,1,0.72
SFE,1953,6,RDSF,2,2
SFE,1953,6,HFLUX,1,%Q6%
SFE,1954,6,RDSF,1,0.72
SFE,1954,6,RDSF,2,2
SFE,1954,6,HFLUX,1,%Q6%
SFE,1955,6,RDSF,1,0.72
SFE,1955,6,RDSF,2,2
SFE,1955,6,HFLUX,1,%Q6%
SFE,1956,6,RDSF,1,0.72
SFE,1956,6,RDSF,2,2
SFE,1956,6,HFLUX,1,%Q6%
SFE,1957,6,RDSF,1,0.72
SFE,1957,6,RDSF,2,2
SFE,1957,6,HFLUX,1,%Q6%
SFE,1958,6,RDSF,1,0.72
SFE,1958,6,RDSF,2,2
SFE,1958,6,HFLUX,1,%Q6%
SFE,1959,6,RDSF,1,0.72
SFE,1959,6,RDSF,2,2
SFE,1959,6,HFLUX,1,%Q6%
SFE,1960,6,RDSF,1,0.72
SFE,1960,6,RDSF,2,2
SFE,1960,6,HFLUX,1,%Q6%
SFE,1961,6,RDSF,1,0.72
SFE,1961,6,RDSF,2,2
SFE,1961,6,HFLUX,1,%Q6%
SFE,1962,6,RDSF,1,0.72
SFE,1962,6,RDSF,2,2
SFE,1962,6,HFLUX,1,%Q6%
SFE,1963,6,RDSF,1,0.72
SFE,1963,6,RDSF,2,2
SFE,1963,6,HFLUX,1,%Q6%
SFE,1964,6,RDSF,1,0.72
SFE,1964,6,RDSF,2,2
SFE,1964,6,HFLUX,1,%Q6%
SFE,1965,6,RDSF,1,0.72
SFE,1965,6,RDSF,2,2
SFE,1965,6,HFLUX,1,%Q6%
SFE,1966,6,RDSF,1,0.72
SFE,1966,6,RDSF,2,2
SFE,1966,6,HFLUX,1,%Q6%
SFE,1967,6,RDSF,1,0.72
SFE,1967,6,RDSF,2,2
SFE,1967,6,HFLUX,1,%Q6%
SFE,1968,3,RDSF,1,0.72
SFE,1968,3,RDSF,2,2
SFE,1968,3,HFLUX,1,%Q2%
SFE,1968,6,RDSF,1,0.72
SFE,1968,6,RDSF,2,2
SFE,1968,6,HFLUX,1,%Q6%
SFE,1969,5,RDSF,1,0.72
SFE,1969,5,RDSF,2,2
SFE,1969,5,HFLUX,1,%Q1%
SFE,1969,6,RDSF,1,0.72
SFE,1969,6,RDSF,2,2
SFE,1969,6,HFLUX,1,%Q6%
SFE,1970,6,RDSF,1,0.72
SFE,1970,6,RDSF,2,2
SFE,1970,6,HFLUX,1,%Q6%
SFE,1971,6,RDSF,1,0.72
SFE,1971,6,RDSF,2,2
SFE,1971,6,HFLUX,1,%Q6%
SFE,1972,6,RDSF,1,0.72
SFE,1972,6,RDSF,2,2
SFE,1972,6,HFLUX,1,%Q6%
SFE,1973,6,RDSF,1,0.72
SFE,1973,6,RDSF,2,2
SFE,1973,6,HFLUX,1,%Q6%
SFE,1974,6,RDSF,1,0.72
SFE,1974,6,RDSF,2,2
SFE,1974,6,HFLUX,1,%Q6%
SFE,1975,6,RDSF,1,0.72
SFE,1975,6,RDSF,2,2
SFE,1975,6,HFLUX,1,%Q6%
SFE,1976,6,RDSF,1,0.72
SFE,1976,6,RDSF,2,2
SFE,1976,6,HFLUX,1,%Q6%
SFE,1977,6,RDSF,1,0.72
SFE,1977,6,RDSF,2,2
SFE,1977,6,HFLUX,1,%Q6%
SFE,1978,6,RDSF,1,0.72
SFE,1978,6,RDSF,2,2
SFE,1978,6,HFLUX,1,%Q6%
SFE,1979,6,RDSF,1,0.72
SFE,1979,6,RDSF,2,2
SFE,1979,6,HFLUX,1,%Q6%
SFE,1980,6,RDSF,1,0.72
SFE,1980,6,RDSF,2,2
SFE,1980,6,HFLUX,1,%Q6%
SFE,1981,6,RDSF,1,0.72
SFE,1981,6,RDSF,2,2
SFE,1981,6,HFLUX,1,%Q6%
SFE,1982,6,RDSF,1,0.72
SFE,1982,6,RDSF,2,2
SFE,1982,6,HFLUX,1,%Q6%
SFE,1983,6,RDSF,1,0.72
SFE,1983,6,RDSF,2,2
SFE,1983,6,HFLUX,1,%Q6%
SFE,1984,3,RDSF,1,0.72
SFE,1984,3,RDSF,2,2
SFE,1984,3,HFLUX,1,%Q2%
SFE,1984,6,RDSF,1,0.72
SFE,1984,6,RDSF,2,2
SFE,1984,6,HFLUX,1,%Q6%
SFE,1985,5,RDSF,1,0.72
SFE,1985,5,RDSF,2,2
SFE,1985,5,HFLUX,1,%Q1%
SFE,1985,6,RDSF,1,0.72
SFE,1985,6,RDSF,2,2
SFE,1985,6,HFLUX,1,%Q6%
SFE,1986,6,RDSF,1,0.72
SFE,1986,6,RDSF,2,2
SFE,1986,6,HFLUX,1,%Q6%
SFE,1987,6,RDSF,1,0.72
SFE,1987,6,RDSF,2,2
SFE,1987,6,HFLUX,1,%Q6%
SFE,1988,1,RDSF,1,0.5
SFE,1988,1,RDSF,2,1
SFE,1988,6,RDSF,1,0.72
SFE,1988,6,RDSF,2,2
SFE,1988,6,HFLUX,1,%Q6%
SFE,1989,1,RDSF,1,0.5
SFE,1989,1,RDSF,2,1
SFE,1989,6,RDSF,1,0.72
SFE,1989,6,RDSF,2,2
SFE,1989,6,HFLUX,1,%Q6%
SFE,1990,1,RDSF,1,0.5
SFE,1990,1,RDSF,2,1
SFE,1990,6,RDSF,1,0.72
SFE,1990,6,RDSF,2,2
SFE,1990,6,HFLUX,1,%Q6%
SFE,1991,1,RDSF,1,0.5
SFE,1991,1,RDSF,2,1
SFE,1991,6,RDSF,1,0.72
SFE,1991,6,RDSF,2,2
SFE,1991,6,HFLUX,1,%Q6%
SFE,1992,1,RDSF,1,0.5
SFE,1992,1,RDSF,2,1
SFE,1992,6,RDSF,1,0.72
SFE,1992,6,RDSF,2,2
SFE,1992,6,HFLUX,1,%Q6%
SFE,1993,1,RDSF,1,0.5
SFE,1993,1,RDSF,2,1
SFE,1993,6,RDSF,1,0.72
SFE,1993,6,RDSF,2,2
SFE,1993,6,HFLUX,1,%Q6%
SFE,1994,1,RDSF,1,0.5
SFE,1994,1,RDSF,2,1
SFE,1994,6,RDSF,1,0.72
SFE,1994,6,RDSF,2,2
SFE,1994,6,HFLUX,1,%Q6%
SFE,1995,1,RDSF,1,0.5
SFE,1995,1,RDSF,2,1
SFE,1995,6,RDSF,1,0.72
SFE,1995,6,RDSF,2,2
SFE,1995,6,HFLUX,1,%Q6%
SFE,1996,1,RDSF,1,0.5
SFE,1996,1,RDSF,2,1
SFE,1996,6,RDSF,1,0.72
SFE,1996,6,RDSF,2,2
SFE,1996,6,HFLUX,1,%Q6%
SFE,1997,1,RDSF,1,0.5
SFE,1997,1,RDSF,2,1
SFE,1997,6,RDSF,1,0.72
SFE,1997,6,RDSF,2,2
SFE,1997,6,HFLUX,1,%Q6%
SFE,1998,6,RDSF,1,0.72
SFE,1998,6,RDSF,2,2
SFE,1998,6,HFLUX,1,%Q6%
SFE,1999,6,RDSF,1,0.72
SFE,1999,6,RDSF,2,2
SFE,1999,6,HFLUX,1,%Q6%
SFE,2000,3,RDSF,1,0.72
SFE,2000,3,RDSF,2,2
SFE,2000,3,HFLUX,1,%Q2%
SFE,2000,6,RDSF,1,0.72
SFE,2000,6,RDSF,2,2
SFE,2000,6,HFLUX,1,%Q6%
SFE,2001,5,RDSF,1,0.72
SFE,2001,5,RDSF,2,2
SFE,2001,5,HFLUX,1,%Q1%
SFE,2001,6,RDSF,1,0.72
SFE,2001,6,RDSF,2,2
SFE,2001,6,HFLUX,1,%Q6%
SFE,2002,6,RDSF,1,0.72
SFE,2002,6,RDSF,2,2
SFE,2002,6,HFLUX,1,%Q6%
SFE,2003,6,RDSF,1,0.72
SFE,2003,6,RDSF,2,2
SFE,2003,6,HFLUX,1,%Q6%
SFE,2004,1,RDSF,1,0.5
SFE,2004,1,RDSF,2,1
SFE,2004,6,RDSF,1,0.72
SFE,2004,6,RDSF,2,2
SFE,2004,6,HFLUX,1,%Q6%
SFE,2005,6,RDSF,1,0.72
SFE,2005,6,RDSF,2,2
SFE,2005,6,HFLUX,1,%Q6%
SFE,2006,1,RDSF,1,0.5
SFE,2006,1,RDSF,2,1
SFE,2006,6,RDSF,1,0.72
SFE,2006,6,RDSF,2,2
SFE,2006,6,HFLUX,1,%Q6%
SFE,2007,1,RDSF,1,0.5
SFE,2007,1,RDSF,2,1
SFE,2007,6,RDSF,1,0.72
SFE,2007,6,RDSF,2,2
SFE,2007,6,HFLUX,1,%Q6%
SFE,2008,1,RDSF,1,0.5
SFE,2008,1,RDSF,2,1
SFE,2008,6,RDSF,1,0.72
SFE,2008,6,RDSF,2,2
SFE,2008,6,HFLUX,1,%Q6%
SFE,2009,1,RDSF,1,0.5
SFE,2009,1,RDSF,2,1
SFE,2009,6,RDSF,1,0.72
SFE,2009,6,RDSF,2,2
SFE,2009,6,HFLUX,1,%Q6%
SFE,2010,1,RDSF,1,0.5
SFE,2010,1,RDSF,2,1
SFE,2010,6,RDSF,1,0.72
SFE,2010,6,RDSF,2,2
SFE,2010,6,HFLUX,1,%Q6%
SFE,2011,1,RDSF,1,0.5
SFE,2011,1,RDSF,2,1
SFE,2011,6,RDSF,1,0.72
SFE,2011,6,RDSF,2,2
SFE,2011,6,HFLUX,1,%Q6%
SFE,2012,6,RDSF,1,0.72
SFE,2012,6,RDSF,2,2
SFE,2012,6,HFLUX,1,%Q6%
SFE,2013,1,RDSF,1,0.5
SFE,2013,1,RDSF,2,1
SFE,2013,6,RDSF,1,0.72
SFE,2013,6,RDSF,2,2
SFE,2013,6,HFLUX,1,%Q6%
SFE,2014,6,RDSF,1,0.72
SFE,2014,6,RDSF,2,2
SFE,2014,6,HFLUX,1,%Q6%
SFE,2015,6,RDSF,1,0.72
SFE,2015,6,RDSF,2,2
SFE,2015,6,HFLUX,1,%Q6%
SFE,2016,3,RDSF,1,0.72
SFE,2016,3,RDSF,2,2
SFE,2016,3,HFLUX,1,%Q2%
SFE,2016,6,RDSF,1,0.72
SFE,2016,6,RDSF,2,2
SFE,2016,6,HFLUX,1,%Q6%
SFE,2017,5,RDSF,1,0.72
SFE,2017,5,RDSF,2,2
SFE,2017,5,HFLUX,1,%Q1%
SFE,2017,6,RDSF,1,0.72
SFE,2017,6,RDSF,2,2
SFE,2017,6,HFLUX,1,%Q6%
SFE,2018,6,RDSF,1,0.72
SFE,2018,6,RDSF,2,2
SFE,2018,6,HFLUX,1,%Q6%
SFE,2019,6,RDSF,1,0.72
SFE,2019,6,RDSF,2,2
SFE,2019,6,HFLUX,1,%Q6%
SFE,2020,1,RDSF,1,0.5
SFE,2020,1,RDSF,2,1
SFE,2020,6,RDSF,1,0.72
SFE,2020,6,RDSF,2,2
SFE,2020,6,HFLUX,1,%Q6%
SFE,2021,1,RDSF,1,0.5
SFE,2021,1,RDSF,2,1
SFE,2021,6,RDSF,1,0.72
SFE,2021,6,RDSF,2,2
SFE,2021,6,HFLUX,1,%Q6%
SFE,2022,1,RDSF,1,0.5
SFE,2022,1,RDSF,2,1
SFE,2022,6,RDSF,1,0.72
SFE,2022,6,RDSF,2,2
SFE,2022,6,HFLUX,1,%Q6%
SFE,2023,1,RDSF,1,0.5
SFE,2023,1,RDSF,2,1
SFE,2023,6,RDSF,1,0.72
SFE,2023,6,RDSF,2,2
SFE,2023,6,HFLUX,1,%Q6%
SFE,2024,1,RDSF,1,0.5
SFE,2024,1,RDSF,2,1
SFE,2024,6,RDSF,1,0.72
SFE,2024,6,RDSF,2,2
SFE,2024,6,HFLUX,1,%Q6%
SFE,2025,1,RDSF,1,0.5
SFE,2025,1,RDSF,2,1
SFE,2025,6,RDSF,1,0.72
SFE,2025,6,RDSF,2,2
SFE,2025,6,HFLUX,1,%Q6%
SFE,2026,1,RDSF,1,0.5
SFE,2026,1,RDSF,2,1
SFE,2026,6,RDSF,1,0.72
SFE,2026,6,RDSF,2,2
SFE,2026,6,HFLUX,1,%Q6%
SFE,2027,1,RDSF,1,0.5
SFE,2027,1,RDSF,2,1
SFE,2027,6,RDSF,1,0.72
SFE,2027,6,RDSF,2,2
SFE,2027,6,HFLUX,1,%Q6%
SFE,2028,1,RDSF,1,0.5
SFE,2028,1,RDSF,2,1
SFE,2028,6,RDSF,1,0.72
SFE,2028,6,RDSF,2,2
SFE,2028,6,HFLUX,1,%Q6%
SFE,2029,1,RDSF,1,0.5
SFE,2029,1,RDSF,2,1
SFE,2029,6,RDSF,1,0.72
SFE,2029,6,RDSF,2,2
SFE,2029,6,HFLUX,1,%Q6%
SFE,2030,6,RDSF,1,0.72
SFE,2030,6,RDSF,2,2
SFE,2030,6,HFLUX,1,%Q6%
SFE,2031,6,RDSF,1,0.72
SFE,2031,6,RDSF,2,2
SFE,2031,6,HFLUX,1,%Q6%
SFE,2032,3,RDSF,1,0.72
SFE,2032,3,RDSF,2,2
SFE,2032,3,HFLUX,1,%Q2%
SFE,2032,6,RDSF,1,0.72
SFE,2032,6,RDSF,2,2
SFE,2032,6,HFLUX,1,%Q6%
SFE,2033,5,RDSF,1,0.72
SFE,2033,5,RDSF,2,2
SFE,2033,5,HFLUX,1,%Q1%
SFE,2033,6,RDSF,1,0.72
SFE,2033,6,RDSF,2,2
SFE,2033,6,HFLUX,1,%Q6%
SFE,2034,6,RDSF,1,0.72
SFE,2034,6,RDSF,2,2
SFE,2034,6,HFLUX,1,%Q6%
SFE,2035,6,RDSF,1,0.72
SFE,2035,6,RDSF,2,2
SFE,2035,6,HFLUX,1,%Q6%
SFE,2036,1,RDSF,1,0.5
SFE,2036,1,RDSF,2,1
SFE,2036,6,RDSF,1,0.72
SFE,2036,6,RDSF,2,2
SFE,2036,6,HFLUX,1,%Q6%
SFE,2037,1,RDSF,1,0.5
SFE,2037,1,RDSF,2,1
SFE,2037,6,RDSF,1,0.72
SFE,2037,6,RDSF,2,2
SFE,2037,6,HFLUX,1,%Q6%
SFE,2038,1,RDSF,1,0.5
SFE,2038,1,RDSF,2,1
SFE,2038,6,RDSF,1,0.72
SFE,2038,6,RDSF,2,2
SFE,2038,6,HFLUX,1,%Q6%
SFE,2039,1,RDSF,1,0.5
SFE,2039,1,RDSF,2,1
SFE,2039,6,RDSF,1,0.72
SFE,2039,6,RDSF,2,2
SFE,2039,6,HFLUX,1,%Q6%
SFE,2040,1,RDSF,1,0.5
SFE,2040,1,RDSF,2,1
SFE,2040,6,RDSF,1,0.72
SFE,2040,6,RDSF,2,2
SFE,2040,6,HFLUX,1,%Q6%
SFE,2041,1,RDSF,1,0.5
SFE,2041,1,RDSF,2,1
SFE,2041,6,RDSF,1,0.72
SFE,2041,6,RDSF,2,2
SFE,2041,6,HFLUX,1,%Q6%
SFE,2042,1,RDSF,1,0.5
SFE,2042,1,RDSF,2,1
SFE,2042,6,RDSF,1,0.72
SFE,2042,6,RDSF,2,2
SFE,2042,6,HFLUX,1,%Q6%
SFE,2043,1,RDSF,1,0.5
SFE,2043,1,RDSF,2,1
SFE,2043,6,RDSF,1,0.72
SFE,2043,6,RDSF,2,2
SFE,2043,6,HFLUX,1,%Q6%
SFE,2044,1,RDSF,1,0.5
SFE,2044,1,RDSF,2,1
SFE,2044,6,RDSF,1,0.72
SFE,2044,6,RDSF,2,2
SFE,2044,6,HFLUX,1,%Q6%
SFE,2045,1,RDSF,1,0.5
SFE,2045,1,RDSF,2,1
SFE,2045,6,RDSF,1,0.72
SFE,2045,6,RDSF,2,2
SFE,2045,6,HFLUX,1,%Q6%
SFE,2046,6,RDSF,1,0.72
SFE,2046,6,RDSF,2,2
SFE,2046,6,HFLUX,1,%Q6%
SFE,2047,6,RDSF,1,0.72
SFE,2047,6,RDSF,2,2
SFE,2047,6,HFLUX,1,%Q6%
SFE,2048,3,RDSF,1,0.72
SFE,2048,3,RDSF,2,2
SFE,2048,3,HFLUX,1,%Q2%
SFE,2048,6,RDSF,1,0.72
SFE,2048,6,RDSF,2,2
SFE,2048,6,HFLUX,1,%Q6%
SFE,2049,5,RDSF,1,0.72
SFE,2049,5,RDSF,2,2
SFE,2049,5,HFLUX,1,%Q1%
SFE,2049,6,RDSF,1,0.72
SFE,2049,6,RDSF,2,2
SFE,2049,6,HFLUX,1,%Q6%
SFE,2050,6,RDSF,1,0.72
SFE,2050,6,RDSF,2,2
SFE,2050,6,HFLUX,1,%Q6%
SFE,2051,6,RDSF,1,0.72
SFE,2051,6,RDSF,2,2
SFE,2051,6,HFLUX,1,%Q6%
SFE,2052,1,RDSF,1,0.5
SFE,2052,1,RDSF,2,1
SFE,2052,6,RDSF,1,0.72
SFE,2052,6,RDSF,2,2
SFE,2052,6,HFLUX,1,%Q6%
SFE,2053,1,RDSF,1,0.5
SFE,2053,1,RDSF,2,1
SFE,2053,6,RDSF,1,0.72
SFE,2053,6,RDSF,2,2
SFE,2053,6,HFLUX,1,%Q6%
SFE,2054,1,RDSF,1,0.5
SFE,2054,1,RDSF,2,1
SFE,2054,6,RDSF,1,0.72
SFE,2054,6,RDSF,2,2
SFE,2054,6,HFLUX,1,%Q6%
SFE,2055,1,RDSF,1,0.5
SFE,2055,1,RDSF,2,1
SFE,2055,6,RDSF,1,0.72
SFE,2055,6,RDSF,2,2
SFE,2055,6,HFLUX,1,%Q6%
SFE,2056,1,RDSF,1,0.5
SFE,2056,1,RDSF,2,1
SFE,2056,6,RDSF,1,0.72
SFE,2056,6,RDSF,2,2
SFE,2056,6,HFLUX,1,%Q6%
SFE,2057,1,RDSF,1,0.5
SFE,2057,1,RDSF,2,1
SFE,2057,6,RDSF,1,0.72
SFE,2057,6,RDSF,2,2
SFE,2057,6,HFLUX,1,%Q6%
SFE,2058,1,RDSF,1,0.5
SFE,2058,1,RDSF,2,1
SFE,2058,6,RDSF,1,0.72
SFE,2058,6,RDSF,2,2
SFE,2058,6,HFLUX,1,%Q6%
SFE,2059,1,RDSF,1,0.5
SFE,2059,1,RDSF,2,1
SFE,2059,6,RDSF,1,0.72
SFE,2059,6,RDSF,2,2
SFE,2059,6,HFLUX,1,%Q6%
SFE,2060,1,RDSF,1,0.5
SFE,2060,1,RDSF,2,1
SFE,2060,6,RDSF,1,0.72
SFE,2060,6,RDSF,2,2
SFE,2060,6,HFLUX,1,%Q6%
SFE,2061,1,RDSF,1,0.5
SFE,2061,1,RDSF,2,1
SFE,2061,6,RDSF,1,0.72
SFE,2061,6,RDSF,2,2
SFE,2061,6,HFLUX,1,%Q6%
SFE,2062,6,RDSF,1,0.72
SFE,2062,6,RDSF,2,2
SFE,2062,6,HFLUX,1,%Q6%
SFE,2063,6,RDSF,1,0.72
SFE,2063,6,RDSF,2,2
SFE,2063,6,HFLUX,1,%Q6%
SFE,2064,3,RDSF,1,0.72
SFE,2064,3,RDSF,2,2
SFE,2064,3,HFLUX,1,%Q2%
SFE,2064,6,RDSF,1,0.72
SFE,2064,6,RDSF,2,2
SFE,2064,6,HFLUX,1,%Q6%
SFE,2065,5,RDSF,1,0.72
SFE,2065,5,RDSF,2,2
SFE,2065,5,HFLUX,1,%Q1%
SFE,2065,6,RDSF,1,0.72
SFE,2065,6,RDSF,2,2
SFE,2065,6,HFLUX,1,%Q6%
SFE,2066,6,RDSF,1,0.72
SFE,2066,6,RDSF,2,2
SFE,2066,6,HFLUX,1,%Q6%
SFE,2067,6,RDSF,1,0.72
SFE,2067,6,RDSF,2,2
SFE,2067,6,HFLUX,1,%Q6%
SFE,2068,1,RDSF,1,0.5
SFE,2068,1,RDSF,2,1
SFE,2068,6,RDSF,1,0.72
SFE,2068,6,RDSF,2,2
SFE,2068,6,HFLUX,1,%Q6%
SFE,2069,1,RDSF,1,0.5
SFE,2069,1,RDSF,2,1
SFE,2069,6,RDSF,1,0.72
SFE,2069,6,RDSF,2,2
SFE,2069,6,HFLUX,1,%Q6%
SFE,2070,1,RDSF,1,0.5
SFE,2070,1,RDSF,2,1
SFE,2070,6,RDSF,1,0.72
SFE,2070,6,RDSF,2,2
SFE,2070,6,HFLUX,1,%Q6%
SFE,2071,1,RDSF,1,0.5
SFE,2071,1,RDSF,2,1
SFE,2071,6,RDSF,1,0.72
SFE,2071,6,RDSF,2,2
SFE,2071,6,HFLUX,1,%Q6%
SFE,2072,1,RDSF,1,0.5
SFE,2072,1,RDSF,2,1
SFE,2072,6,RDSF,1,0.72
SFE,2072,6,RDSF,2,2
SFE,2072,6,HFLUX,1,%Q6%
SFE,2073,1,RDSF,1,0.5
SFE,2073,1,RDSF,2,1
SFE,2073,6,RDSF,1,0.72
SFE,2073,6,RDSF,2,2
SFE,2073,6,HFLUX,1,%Q6%
SFE,2074,1,RDSF,1,0.5
SFE,2074,1,RDSF,2,1
SFE,2074,6,RDSF,1,0.72
SFE,2074,6,RDSF,2,2
SFE,2074,6,HFLUX,1,%Q6%
SFE,2075,1,RDSF,1,0.5
SFE,2075,1,RDSF,2,1
SFE,2075,6,RDSF,1,0.72
SFE,2075,6,RDSF,2,2
SFE,2075,6,HFLUX,1,%Q6%
SFE,2076,1,RDSF,1,0.5
SFE,2076,1,RDSF,2,1
SFE,2076,6,RDSF,1,0.72
SFE,2076,6,RDSF,2,2
SFE,2076,6,HFLUX,1,%Q6%
SFE,2077,1,RDSF,1,0.5
SFE,2077,1,RDSF,2,1
SFE,2077,6,RDSF,1,0.72
SFE,2077,6,RDSF,2,2
SFE,2077,6,HFLUX,1,%Q6%
SFE,2078,6,RDSF,1,0.72
SFE,2078,6,RDSF,2,2
SFE,2078,6,HFLUX,1,%Q6%
SFE,2079,6,RDSF,1,0.72
SFE,2079,6,RDSF,2,2
SFE,2079,6,HFLUX,1,%Q6%
SFE,2080,3,RDSF,1,0.72
SFE,2080,3,RDSF,2,2
SFE,2080,3,HFLUX,1,%Q2%
SFE,2080,6,RDSF,1,0.72
SFE,2080,6,RDSF,2,2
SFE,2080,6,HFLUX,1,%Q6%
SFE,2081,5,RDSF,1,0.72
SFE,2081,5,RDSF,2,2
SFE,2081,5,HFLUX,1,%Q1%
SFE,2081,6,RDSF,1,0.72
SFE,2081,6,RDSF,2,2
SFE,2081,6,HFLUX,1,%Q6%
SFE,2082,6,RDSF,1,0.72
SFE,2082,6,RDSF,2,2
SFE,2082,6,HFLUX,1,%Q6%
SFE,2083,6,RDSF,1,0.72
SFE,2083,6,RDSF,2,2
SFE,2083,6,HFLUX,1,%Q6%
SFE,2084,1,RDSF,1,0.5
SFE,2084,1,RDSF,2,1
SFE,2084,6,RDSF,1,0.72
SFE,2084,6,RDSF,2,2
SFE,2084,6,HFLUX,1,%Q6%
SFE,2085,1,RDSF,1,0.5
SFE,2085,1,RDSF,2,1
SFE,2085,6,RDSF,1,0.72
SFE,2085,6,RDSF,2,2
SFE,2085,6,HFLUX,1,%Q6%
SFE,2086,1,RDSF,1,0.5
SFE,2086,1,RDSF,2,1
SFE,2086,6,RDSF,1,0.72
SFE,2086,6,RDSF,2,2
SFE,2086,6,HFLUX,1,%Q6%
SFE,2087,1,RDSF,1,0.5
SFE,2087,1,RDSF,2,1
SFE,2087,6,RDSF,1,0.72
SFE,2087,6,RDSF,2,2
SFE,2087,6,HFLUX,1,%Q6%
SFE,2088,1,RDSF,1,0.5
SFE,2088,1,RDSF,2,1
SFE,2088,6,RDSF,1,0.72
SFE,2088,6,RDSF,2,2
SFE,2088,6,HFLUX,1,%Q6%
SFE,2089,1,RDSF,1,0.5
SFE,2089,1,RDSF,2,1
SFE,2089,6,RDSF,1,0.72
SFE,2089,6,RDSF,2,2
SFE,2089,6,HFLUX,1,%Q6%
SFE,2090,1,RDSF,1,0.5
SFE,2090,1,RDSF,2,1
SFE,2090,6,RDSF,1,0.72
SFE,2090,6,RDSF,2,2
SFE,2090,6,HFLUX,1,%Q6%
SFE,2091,1,RDSF,1,0.5
SFE,2091,1,RDSF,2,1
SFE,2091,6,RDSF,1,0.72
SFE,2091,6,RDSF,2,2
SFE,2091,6,HFLUX,1,%Q6%
SFE,2092,1,RDSF,1,0.5
SFE,2092,1,RDSF,2,1
SFE,2092,6,RDSF,1,0.72
SFE,2092,6,RDSF,2,2
SFE,2092,6,HFLUX,1,%Q6%
SFE,2093,1,RDSF,1,0.5
SFE,2093,1,RDSF,2,1
SFE,2093,6,RDSF,1,0.72
SFE,2093,6,RDSF,2,2
SFE,2093,6,HFLUX,1,%Q6%
SFE,2094,6,RDSF,1,0.72
SFE,2094,6,RDSF,2,2
SFE,2094,6,HFLUX,1,%Q6%
SFE,2095,6,RDSF,1,0.72
SFE,2095,6,RDSF,2,2
SFE,2095,6,HFLUX,1,%Q6%
SFE,2096,3,RDSF,1,0.72
SFE,2096,3,RDSF,2,2
SFE,2096,3,HFLUX,1,%Q2%
SFE,2096,6,RDSF,1,0.72
SFE,2096,6,RDSF,2,2
SFE,2096,6,HFLUX,1,%Q6%
SFE,2097,5,RDSF,1,0.72
SFE,2097,5,RDSF,2,2
SFE,2097,5,HFLUX,1,%Q1%
SFE,2097,6,RDSF,1,0.72
SFE,2097,6,RDSF,2,2
SFE,2097,6,HFLUX,1,%Q6%
SFE,2098,6,RDSF,1,0.72
SFE,2098,6,RDSF,2,2
SFE,2098,6,HFLUX,1,%Q6%
SFE,2099,6,RDSF,1,0.72
SFE,2099,6,RDSF,2,2
SFE,2099,6,HFLUX,1,%Q6%
SFE,2100,1,RDSF,1,0.5
SFE,2100,1,RDSF,2,1
SFE,2100,6,RDSF,1,0.72
SFE,2100,6,RDSF,2,2
SFE,2100,6,HFLUX,1,%Q6%
SFE,2101,1,RDSF,1,0.5
SFE,2101,1,RDSF,2,1
SFE,2101,6,RDSF,1,0.72
SFE,2101,6,RDSF,2,2
SFE,2101,6,HFLUX,1,%Q6%
SFE,2102,1,RDSF,1,0.5
SFE,2102,1,RDSF,2,1
SFE,2102,6,RDSF,1,0.72
SFE,2102,6,RDSF,2,2
SFE,2102,6,HFLUX,1,%Q6%
SFE,2103,1,RDSF,1,0.5
SFE,2103,1,RDSF,2,1
SFE,2103,6,RDSF,1,0.72
SFE,2103,6,RDSF,2,2
SFE,2103,6,HFLUX,1,%Q6%
SFE,2104,1,RDSF,1,0.5
SFE,2104,1,RDSF,2,1
SFE,2104,6,RDSF,1,0.72
SFE,2104,6,RDSF,2,2
SFE,2104,6,HFLUX,1,%Q6%
SFE,2105,1,RDSF,1,0.5
SFE,2105,1,RDSF,2,1
SFE,2105,6,RDSF,1,0.72
SFE,2105,6,RDSF,2,2
SFE,2105,6,HFLUX,1,%Q6%
SFE,2106,1,RDSF,1,0.5
SFE,2106,1,RDSF,2,1
SFE,2106,6,RDSF,1,0.72
SFE,2106,6,RDSF,2,2
SFE,2106,6,HFLUX,1,%Q6%
SFE,2107,1,RDSF,1,0.5
SFE,2107,1,RDSF,2,1
SFE,2107,6,RDSF,1,0.72
SFE,2107,6,RDSF,2,2
SFE,2107,6,HFLUX,1,%Q6%
SFE,2108,1,RDSF,1,0.5
SFE,2108,1,RDSF,2,1
SFE,2108,6,RDSF,1,0.72
SFE,2108,6,RDSF,2,2
SFE,2108,6,HFLUX,1,%Q6%
SFE,2109,1,RDSF,1,0.5
SFE,2109,1,RDSF,2,1
SFE,2109,6,RDSF,1,0.72
SFE,2109,6,RDSF,2,2
SFE,2109,6,HFLUX,1,%Q6%
SFE,2110,6,RDSF,1,0.72
SFE,2110,6,RDSF,2,2
SFE,2110,6,HFLUX,1,%Q6%
SFE,2111,6,RDSF,1,0.72
SFE,2111,6,RDSF,2,2
SFE,2111,6,HFLUX,1,%Q6%
SFE,2112,3,RDSF,1,0.72
SFE,2112,3,RDSF,2,2
SFE,2112,3,HFLUX,1,%Q2%
SFE,2112,6,RDSF,1,0.72
SFE,2112,6,RDSF,2,2
SFE,2112,6,HFLUX,1,%Q6%
SFE,2113,5,RDSF,1,0.72
SFE,2113,5,RDSF,2,2
SFE,2113,5,HFLUX,1,%Q1%
SFE,2113,6,RDSF,1,0.72
SFE,2113,6,RDSF,2,2
SFE,2113,6,HFLUX,1,%Q6%
SFE,2114,6,RDSF,1,0.72
SFE,2114,6,RDSF,2,2
SFE,2114,6,HFLUX,1,%Q6%
SFE,2115,6,RDSF,1,0.72
SFE,2115,6,RDSF,2,2
SFE,2115,6,HFLUX,1,%Q6%
SFE,2116,1,RDSF,1,0.5
SFE,2116,1,RDSF,2,1
SFE,2116,6,RDSF,1,0.72
SFE,2116,6,RDSF,2,2
SFE,2116,6,HFLUX,1,%Q6%
SFE,2117,6,RDSF,1,0.72
SFE,2117,6,RDSF,2,2
SFE,2117,6,HFLUX,1,%Q6%
SFE,2118,1,RDSF,1,0.5
SFE,2118,1,RDSF,2,1
SFE,2118,6,RDSF,1,0.72
SFE,2118,6,RDSF,2,2
SFE,2118,6,HFLUX,1,%Q6%
SFE,2119,1,RDSF,1,0.5
SFE,2119,1,RDSF,2,1
SFE,2119,6,RDSF,1,0.72
SFE,2119,6,RDSF,2,2
SFE,2119,6,HFLUX,1,%Q6%
SFE,2120,1,RDSF,1,0.5
SFE,2120,1,RDSF,2,1
SFE,2120,6,RDSF,1,0.72
SFE,2120,6,RDSF,2,2
SFE,2120,6,HFLUX,1,%Q6%
SFE,2121,1,RDSF,1,0.5
SFE,2121,1,RDSF,2,1
SFE,2121,6,RDSF,1,0.72
SFE,2121,6,RDSF,2,2
SFE,2121,6,HFLUX,1,%Q6%
SFE,2122,1,RDSF,1,0.5
SFE,2122,1,RDSF,2,1
SFE,2122,6,RDSF,1,0.72
SFE,2122,6,RDSF,2,2
SFE,2122,6,HFLUX,1,%Q6%
SFE,2123,1,RDSF,1,0.5
SFE,2123,1,RDSF,2,1
SFE,2123,6,RDSF,1,0.72
SFE,2123,6,RDSF,2,2
SFE,2123,6,HFLUX,1,%Q6%
SFE,2124,6,RDSF,1,0.72
SFE,2124,6,RDSF,2,2
SFE,2124,6,HFLUX,1,%Q6%
SFE,2125,1,RDSF,1,0.5
SFE,2125,1,RDSF,2,1
SFE,2125,6,RDSF,1,0.72
SFE,2125,6,RDSF,2,2
SFE,2125,6,HFLUX,1,%Q6%
SFE,2126,6,RDSF,1,0.72
SFE,2126,6,RDSF,2,2
SFE,2126,6,HFLUX,1,%Q6%
SFE,2127,6,RDSF,1,0.72
SFE,2127,6,RDSF,2,2
SFE,2127,6,HFLUX,1,%Q6%
SFE,2128,3,RDSF,1,0.72
SFE,2128,3,RDSF,2,2
SFE,2128,3,HFLUX,1,%Q2%
SFE,2128,6,RDSF,1,0.72
SFE,2128,6,RDSF,2,2
SFE,2128,6,HFLUX,1,%Q6%
SFE,2129,5,RDSF,1,0.72
SFE,2129,5,RDSF,2,2
SFE,2129,5,HFLUX,1,%Q1%
SFE,2129,6,RDSF,1,0.72
SFE,2129,6,RDSF,2,2
SFE,2129,6,HFLUX,1,%Q6%
SFE,2130,6,RDSF,1,0.72
SFE,2130,6,RDSF,2,2
SFE,2130,6,HFLUX,1,%Q6%
SFE,2131,6,RDSF,1,0.72
SFE,2131,6,RDSF,2,2
SFE,2131,6,HFLUX,1,%Q6%
SFE,2132,1,RDSF,1,0.5
SFE,2132,1,RDSF,2,1
SFE,2132,6,RDSF,1,0.72
SFE,2132,6,RDSF,2,2
SFE,2132,6,HFLUX,1,%Q6%
SFE,2133,1,RDSF,1,0.5
SFE,2133,1,RDSF,2,1
SFE,2133,6,RDSF,1,0.72
SFE,2133,6,RDSF,2,2
SFE,2133,6,HFLUX,1,%Q6%
SFE,2134,1,RDSF,1,0.5
SFE,2134,1,RDSF,2,1
SFE,2134,6,RDSF,1,0.72
SFE,2134,6,RDSF,2,2
SFE,2134,6,HFLUX,1,%Q6%
SFE,2135,1,RDSF,1,0.5
SFE,2135,1,RDSF,2,1
SFE,2135,6,RDSF,1,0.72
SFE,2135,6,RDSF,2,2
SFE,2135,6,HFLUX,1,%Q6%
SFE,2136,1,RDSF,1,0.5
SFE,2136,1,RDSF,2,1
SFE,2136,6,RDSF,1,0.72
SFE,2136,6,RDSF,2,2
SFE,2136,6,HFLUX,1,%Q6%
SFE,2137,1,RDSF,1,0.5
SFE,2137,1,RDSF,2,1
SFE,2137,6,RDSF,1,0.72
SFE,2137,6,RDSF,2,2
SFE,2137,6,HFLUX,1,%Q6%
SFE,2138,1,RDSF,1,0.5
SFE,2138,1,RDSF,2,1
SFE,2138,6,RDSF,1,0.72
SFE,2138,6,RDSF,2,2
SFE,2138,6,HFLUX,1,%Q6%
SFE,2139,1,RDSF,1,0.5
SFE,2139,1,RDSF,2,1
SFE,2139,6,RDSF,1,0.72
SFE,2139,6,RDSF,2,2
SFE,2139,6,HFLUX,1,%Q6%
SFE,2140,1,RDSF,1,0.5
SFE,2140,1,RDSF,2,1
SFE,2140,6,RDSF,1,0.72
SFE,2140,6,RDSF,2,2
SFE,2140,6,HFLUX,1,%Q6%
SFE,2141,1,RDSF,1,0.5
SFE,2141,1,RDSF,2,1
SFE,2141,6,RDSF,1,0.72
SFE,2141,6,RDSF,2,2
SFE,2141,6,HFLUX,1,%Q6%
SFE,2142,6,RDSF,1,0.72
SFE,2142,6,RDSF,2,2
SFE,2142,6,HFLUX,1,%Q6%
SFE,2143,6,RDSF,1,0.72
SFE,2143,6,RDSF,2,2
SFE,2143,6,HFLUX,1,%Q6%
SFE,2144,3,RDSF,1,0.72
SFE,2144,3,RDSF,2,2
SFE,2144,3,HFLUX,1,%Q2%
SFE,2144,6,RDSF,1,0.72
SFE,2144,6,RDSF,2,2
SFE,2144,6,HFLUX,1,%Q6%
SFE,2145,5,RDSF,1,0.72
SFE,2145,5,RDSF,2,2
SFE,2145,5,HFLUX,1,%Q1%
SFE,2145,6,RDSF,1,0.72
SFE,2145,6,RDSF,2,2
SFE,2145,6,HFLUX,1,%Q6%
SFE,2146,6,RDSF,1,0.72
SFE,2146,6,RDSF,2,2
SFE,2146,6,HFLUX,1,%Q6%
SFE,2147,6,RDSF,1,0.72
SFE,2147,6,RDSF,2,2
SFE,2147,6,HFLUX,1,%Q6%
SFE,2148,6,RDSF,1,0.72
SFE,2148,6,RDSF,2,2
SFE,2148,6,HFLUX,1,%Q6%
SFE,2149,6,RDSF,1,0.72
SFE,2149,6,RDSF,2,2
SFE,2149,6,HFLUX,1,%Q6%
SFE,2150,6,RDSF,1,0.72
SFE,2150,6,RDSF,2,2
SFE,2150,6,HFLUX,1,%Q6%
SFE,2151,6,RDSF,1,0.72
SFE,2151,6,RDSF,2,2
SFE,2151,6,HFLUX,1,%Q6%
SFE,2152,6,RDSF,1,0.72
SFE,2152,6,RDSF,2,2
SFE,2152,6,HFLUX,1,%Q6%
SFE,2153,6,RDSF,1,0.72
SFE,2153,6,RDSF,2,2
SFE,2153,6,HFLUX,1,%Q6%
SFE,2154,6,RDSF,1,0.72
SFE,2154,6,RDSF,2,2
SFE,2154,6,HFLUX,1,%Q6%
SFE,2155,6,RDSF,1,0.72
SFE,2155,6,RDSF,2,2
SFE,2155,6,HFLUX,1,%Q6%
SFE,2156,6,RDSF,1,0.72
SFE,2156,6,RDSF,2,2
SFE,2156,6,HFLUX,1,%Q6%
SFE,2157,6,RDSF,1,0.72
SFE,2157,6,RDSF,2,2
SFE,2157,6,HFLUX,1,%Q6%
SFE,2158,6,RDSF,1,0.72
SFE,2158,6,RDSF,2,2
SFE,2158,6,HFLUX,1,%Q6%
SFE,2159,6,RDSF,1,0.72
SFE,2159,6,RDSF,2,2
SFE,2159,6,HFLUX,1,%Q6%
SFE,2160,3,RDSF,1,0.72
SFE,2160,3,RDSF,2,2
SFE,2160,3,HFLUX,1,%Q2%
SFE,2160,6,RDSF,1,0.72
SFE,2160,6,RDSF,2,2
SFE,2160,6,HFLUX,1,%Q6%
SFE,2161,5,RDSF,1,0.72
SFE,2161,5,RDSF,2,2
SFE,2161,5,HFLUX,1,%Q1%
SFE,2161,6,RDSF,1,0.72
SFE,2161,6,RDSF,2,2
SFE,2161,6,HFLUX,1,%Q6%
SFE,2162,6,RDSF,1,0.72
SFE,2162,6,RDSF,2,2
SFE,2162,6,HFLUX,1,%Q6%
SFE,2163,6,RDSF,1,0.72
SFE,2163,6,RDSF,2,2
SFE,2163,6,HFLUX,1,%Q6%
SFE,2164,6,RDSF,1,0.72
SFE,2164,6,RDSF,2,2
SFE,2164,6,HFLUX,1,%Q6%
SFE,2165,6,RDSF,1,0.72
SFE,2165,6,RDSF,2,2
SFE,2165,6,HFLUX,1,%Q6%
SFE,2166,6,RDSF,1,0.72
SFE,2166,6,RDSF,2,2
SFE,2166,6,HFLUX,1,%Q6%
SFE,2167,6,RDSF,1,0.72
SFE,2167,6,RDSF,2,2
SFE,2167,6,HFLUX,1,%Q6%
SFE,2168,6,RDSF,1,0.72
SFE,2168,6,RDSF,2,2
SFE,2168,6,HFLUX,1,%Q6%
SFE,2169,6,RDSF,1,0.72
SFE,2169,6,RDSF,2,2
SFE,2169,6,HFLUX,1,%Q6%
SFE,2170,6,RDSF,1,0.72
SFE,2170,6,RDSF,2,2
SFE,2170,6,HFLUX,1,%Q6%
SFE,2171,6,RDSF,1,0.72
SFE,2171,6,RDSF,2,2
SFE,2171,6,HFLUX,1,%Q6%
SFE,2172,6,RDSF,1,0.72
SFE,2172,6,RDSF,2,2
SFE,2172,6,HFLUX,1,%Q6%
SFE,2173,6,RDSF,1,0.72
SFE,2173,6,RDSF,2,2
SFE,2173,6,HFLUX,1,%Q6%
SFE,2174,6,RDSF,1,0.72
SFE,2174,6,RDSF,2,2
SFE,2174,6,HFLUX,1,%Q6%
SFE,2175,6,RDSF,1,0.72
SFE,2175,6,RDSF,2,2
SFE,2175,6,HFLUX,1,%Q6%
SFE,2176,3,RDSF,1,0.72
SFE,2176,3,RDSF,2,2
SFE,2176,3,HFLUX,1,%Q2%
SFE,2176,6,RDSF,1,0.72
SFE,2176,6,RDSF,2,2
SFE,2176,6,HFLUX,1,%Q6%
SFE,2177,4,RDSF,1,0.72
SFE,2177,4,RDSF,2,2
SFE,2177,4,HFLUX,1,%Q4%
SFE,2177,5,RDSF,1,0.72
SFE,2177,5,RDSF,2,2
SFE,2177,5,HFLUX,1,%Q1%
SFE,2177,6,RDSF,1,0.72
SFE,2177,6,RDSF,2,2
SFE,2177,6,HFLUX,1,%Q6%
SFE,2178,4,RDSF,1,0.72
SFE,2178,4,RDSF,2,2
SFE,2178,4,HFLUX,1,%Q4%
SFE,2178,6,RDSF,1,0.72
SFE,2178,6,RDSF,2,2
SFE,2178,6,HFLUX,1,%Q6%
SFE,2179,4,RDSF,1,0.72
SFE,2179,4,RDSF,2,2
SFE,2179,4,HFLUX,1,%Q4%
SFE,2179,6,RDSF,1,0.72
SFE,2179,6,RDSF,2,2
SFE,2179,6,HFLUX,1,%Q6%
SFE,2180,4,RDSF,1,0.72
SFE,2180,4,RDSF,2,2
SFE,2180,4,HFLUX,1,%Q4%
SFE,2180,6,RDSF,1,0.72
SFE,2180,6,RDSF,2,2
SFE,2180,6,HFLUX,1,%Q6%
SFE,2181,4,RDSF,1,0.72
SFE,2181,4,RDSF,2,2
SFE,2181,4,HFLUX,1,%Q4%
SFE,2181,6,RDSF,1,0.72
SFE,2181,6,RDSF,2,2
SFE,2181,6,HFLUX,1,%Q6%
SFE,2182,4,RDSF,1,0.72
SFE,2182,4,RDSF,2,2
SFE,2182,4,HFLUX,1,%Q4%
SFE,2182,6,RDSF,1,0.72
SFE,2182,6,RDSF,2,2
SFE,2182,6,HFLUX,1,%Q6%
SFE,2183,4,RDSF,1,0.72
SFE,2183,4,RDSF,2,2
SFE,2183,4,HFLUX,1,%Q4%
SFE,2183,6,RDSF,1,0.72
SFE,2183,6,RDSF,2,2
SFE,2183,6,HFLUX,1,%Q6%
SFE,2184,4,RDSF,1,0.72
SFE,2184,4,RDSF,2,2
SFE,2184,4,HFLUX,1,%Q4%
SFE,2184,6,RDSF,1,0.72
SFE,2184,6,RDSF,2,2
SFE,2184,6,HFLUX,1,%Q6%
SFE,2185,4,RDSF,1,0.72
SFE,2185,4,RDSF,2,2
SFE,2185,4,HFLUX,1,%Q4%
SFE,2185,6,RDSF,1,0.72
SFE,2185,6,RDSF,2,2
SFE,2185,6,HFLUX,1,%Q6%
SFE,2186,4,RDSF,1,0.72
SFE,2186,4,RDSF,2,2
SFE,2186,4,HFLUX,1,%Q4%
SFE,2186,6,RDSF,1,0.72
SFE,2186,6,RDSF,2,2
SFE,2186,6,HFLUX,1,%Q6%
SFE,2187,4,RDSF,1,0.72
SFE,2187,4,RDSF,2,2
SFE,2187,4,HFLUX,1,%Q4%
SFE,2187,6,RDSF,1,0.72
SFE,2187,6,RDSF,2,2
SFE,2187,6,HFLUX,1,%Q6%
SFE,2188,4,RDSF,1,0.72
SFE,2188,4,RDSF,2,2
SFE,2188,4,HFLUX,1,%Q4%
SFE,2188,6,RDSF,1,0.72
SFE,2188,6,RDSF,2,2
SFE,2188,6,HFLUX,1,%Q6%
SFE,2189,4,RDSF,1,0.72
SFE,2189,4,RDSF,2,2
SFE,2189,4,HFLUX,1,%Q4%
SFE,2189,6,RDSF,1,0.72
SFE,2189,6,RDSF,2,2
SFE,2189,6,HFLUX,1,%Q6%
SFE,2190,4,RDSF,1,0.72
SFE,2190,4,RDSF,2,2
SFE,2190,4,HFLUX,1,%Q4%
SFE,2190,6,RDSF,1,0.72
SFE,2190,6,RDSF,2,2
SFE,2190,6,HFLUX,1,%Q6%
SFE,2191,4,RDSF,1,0.72
SFE,2191,4,RDSF,2,2
SFE,2191,4,HFLUX,1,%Q4%
SFE,2191,6,RDSF,1,0.72
SFE,2191,6,RDSF,2,2
SFE,2191,6,HFLUX,1,%Q6%
SFE,2192,3,RDSF,1,0.72
SFE,2192,3,RDSF,2,2
SFE,2192,3,HFLUX,1,%Q2%
SFE,2192,4,RDSF,1,0.72
SFE,2192,4,RDSF,2,2
SFE,2192,4,HFLUX,1,%Q4%
SFE,2192,6,RDSF,1,0.72
SFE,2192,6,RDSF,2,2
SFE,2192,6,HFLUX,1,%Q6%
ALLSEL,ALL
FINISH
/AUX12
VFSM,DEFINE,1,2,1000,1E-8
FINISH
/SOLU
ANTYPE,TRANS
TRNOPT,FULL
THOPT,FULL
CNVTOL,HEAT,,1E-8,2,1E-6
IC,1,TEMP,287.816758245
IC,2,TEMP,286.60142447
IC,3,TEMP,286.824793417
IC,4,TEMP,287.915718529
IC,5,TEMP,287.954349098
IC,6,TEMP,286.858271174
IC,7,TEMP,286.583685839
IC,8,TEMP,288.14112296
IC,9,TEMP,285.902151754
IC,10,TEMP,286.041073745
IC,11,TEMP,286.086390537
IC,12,TEMP,286.462678731
IC,13,TEMP,285.694627316
IC,14,TEMP,285.878063805
IC,15,TEMP,285.923597802
IC,16,TEMP,286.285308541
IC,17,TEMP,285.403281537
IC,18,TEMP,285.581221975
IC,19,TEMP,285.611589568
IC,20,TEMP,286.009919973
IC,21,TEMP,284.790190504
IC,22,TEMP,284.966361739
IC,23,TEMP,284.988414685
IC,24,TEMP,285.348950537
IC,25,TEMP,284.162366109
IC,26,TEMP,284.332095812
IC,27,TEMP,284.348398057
IC,28,TEMP,284.714483012
IC,29,TEMP,282.510703728
IC,30,TEMP,282.673493618
IC,31,TEMP,282.668182708
IC,32,TEMP,283.022849404
IC,33,TEMP,281.101912296
IC,34,TEMP,281.257247508
IC,35,TEMP,281.242168545
IC,36,TEMP,281.587962689
IC,37,TEMP,279.908054025
IC,38,TEMP,280.056822255
IC,39,TEMP,280.044798738
IC,40,TEMP,280.369729387
IC,41,TEMP,278.904068081
IC,42,TEMP,279.0463085
IC,43,TEMP,279.052707787
IC,44,TEMP,279.34939156
IC,45,TEMP,278.617874667
IC,46,TEMP,278.759257748
IC,47,TEMP,278.774072503
IC,48,TEMP,279.054478568
IC,49,TEMP,278.363631547
IC,50,TEMP,278.500108798
IC,51,TEMP,278.524413085
IC,52,TEMP,278.789912353
IC,53,TEMP,278.251511137
IC,54,TEMP,278.381929634
IC,55,TEMP,278.415324119
IC,56,TEMP,278.673953279
IC,57,TEMP,278.210053679
IC,58,TEMP,278.331694064
IC,59,TEMP,278.370604274
IC,60,TEMP,278.614278111
IC,61,TEMP,278.28936639
IC,62,TEMP,278.418472204
IC,63,TEMP,278.458500336
IC,64,TEMP,278.586166605
IC,65,TEMP,278.542458693
IC,66,TEMP,278.667640719
IC,67,TEMP,278.707522088
IC,68,TEMP,278.830454172
IC,69,TEMP,286.823483698
IC,70,TEMP,287.924650072
IC,71,TEMP,286.581206543
IC,72,TEMP,288.102157322
IC,73,TEMP,286.132209032
IC,74,TEMP,286.483303479
IC,75,TEMP,285.959611062
IC,76,TEMP,286.307681363
IC,77,TEMP,285.580978679
IC,78,TEMP,286.015401649
IC,79,TEMP,284.90573532
IC,80,TEMP,285.344590541
IC,81,TEMP,284.313751249
IC,82,TEMP,284.712642077
IC,83,TEMP,282.635311346
IC,84,TEMP,283.020951577
IC,85,TEMP,281.211333637
IC,86,TEMP,281.586176223
IC,87,TEMP,280.021154369
IC,88,TEMP,280.368379438
IC,89,TEMP,279.030975245
IC,90,TEMP,279.348061921
IC,91,TEMP,278.717098979
IC,92,TEMP,279.053792336
IC,93,TEMP,278.479598619
IC,94,TEMP,278.780804986
IC,95,TEMP,278.374009914
IC,96,TEMP,278.638561919
IC,97,TEMP,278.330666919
IC,98,TEMP,278.56415912
IC,99,TEMP,278.411473047
IC,100,TEMP,278.532565895
IC,101,TEMP,278.6557447
IC,102,TEMP,278.818210646
IC,103,TEMP,286.833483892
IC,104,TEMP,287.920086658
IC,105,TEMP,286.591430239
IC,106,TEMP,288.09239019
IC,107,TEMP,286.124191464
IC,108,TEMP,286.519835455
IC,109,TEMP,285.71202922
IC,110,TEMP,286.391513148
IC,111,TEMP,284.439065966
IC,112,TEMP,285.997573437
IC,113,TEMP,283.609283822
IC,114,TEMP,285.330034114
IC,115,TEMP,283.376733884
IC,116,TEMP,284.698364016
IC,117,TEMP,281.540539268
IC,118,TEMP,283.004987419
IC,119,TEMP,280.101887795
IC,120,TEMP,281.569623539
IC,121,TEMP,279.016892655
IC,122,TEMP,280.353495212
IC,123,TEMP,278.267367463
IC,124,TEMP,279.336685341
IC,125,TEMP,277.730186199
IC,126,TEMP,279.04022577
IC,127,TEMP,277.673574607
IC,128,TEMP,278.778618586
IC,129,TEMP,278.104395167
IC,130,TEMP,278.536954262
IC,131,TEMP,278.207579157
IC,132,TEMP,278.450468899
IC,133,TEMP,278.324426803
IC,134,TEMP,278.426936634
IC,135,TEMP,278.568480549
IC,136,TEMP,278.728940572
IC,137,TEMP,286.841606387
IC,138,TEMP,287.920775566
IC,139,TEMP,286.616852019
IC,140,TEMP,288.040589643
IC,141,TEMP,286.118676471
IC,142,TEMP,286.591208262
IC,143,TEMP,284.81883866
IC,144,TEMP,286.57811609
IC,145,TEMP,281.728816159
IC,146,TEMP,279.539557387
IC,147,TEMP,280.321674582
IC,148,TEMP,279.51660183
IC,149,TEMP,280.43946138
IC,150,TEMP,280.450930294
IC,151,TEMP,278.030710251
IC,152,TEMP,277.905723461
IC,153,TEMP,276.538311676
IC,154,TEMP,276.441989382
IC,155,TEMP,275.791400067
IC,156,TEMP,275.676688607
IC,157,TEMP,275.848911496
IC,158,TEMP,275.882369436
IC,159,TEMP,275.251770946
IC,160,TEMP,274.50743781
IC,161,TEMP,275.780091746
IC,162,TEMP,274.512288712
IC,163,TEMP,277.305316737
IC,164,TEMP,278.232852665
IC,165,TEMP,277.948149034
IC,166,TEMP,278.24687754
IC,167,TEMP,278.129129539
IC,168,TEMP,278.243981465
IC,169,TEMP,278.377627158
IC,170,TEMP,278.51831435
IC,171,TEMP,286.816955225
IC,172,TEMP,287.887727355
IC,173,TEMP,286.615647811
IC,174,TEMP,287.957548199
IC,175,TEMP,286.080012565
IC,176,TEMP,286.602056665
IC,177,TEMP,284.554630979
IC,178,TEMP,286.574573779
IC,179,TEMP,280.687453065
IC,180,TEMP,279.526945609
IC,181,TEMP,278.165102939
IC,182,TEMP,279.450240971
IC,183,TEMP,275.75397215
IC,184,TEMP,275.751255183
IC,185,TEMP,271.842229016
IC,186,TEMP,272.026953549
IC,187,TEMP,270.240150603
IC,188,TEMP,270.35997305
IC,189,TEMP,270.064660846
IC,190,TEMP,270.229405675
IC,191,TEMP,271.835159174
IC,192,TEMP,271.846416181
IC,193,TEMP,273.458672461
IC,194,TEMP,274.451812556
IC,195,TEMP,274.83130024
IC,196,TEMP,274.495488817
IC,197,TEMP,276.733098325
IC,198,TEMP,277.790008163
IC,199,TEMP,277.481081343
IC,200,TEMP,277.800246074
IC,201,TEMP,277.699539361
IC,202,TEMP,277.806781601
IC,203,TEMP,277.950405259
IC,204,TEMP,278.07594496
IC,205,TEMP,286.760048079
IC,206,TEMP,287.831346484
IC,207,TEMP,286.571404746
IC,208,TEMP,287.879567674
IC,209,TEMP,286.079355843
IC,210,TEMP,286.558539812
IC,211,TEMP,284.982602096
IC,212,TEMP,286.534645898
IC,213,TEMP,281.531977781
IC,214,TEMP,281.555754754
IC,215,TEMP,276.134226492
IC,216,TEMP,276.144515933
IC,217,TEMP,272.542393277
IC,218,TEMP,272.631603473
IC,219,TEMP,267.053694576
IC,220,TEMP,267.123743209
IC,221,TEMP,265.272535256
IC,222,TEMP,265.336593677
IC,223,TEMP,265.579972755
IC,224,TEMP,265.643606365
IC,225,TEMP,268.854358399
IC,226,TEMP,268.932217901
IC,227,TEMP,271.104593394
IC,228,TEMP,271.105049812
IC,229,TEMP,274.36385246
IC,230,TEMP,274.361139847
IC,231,TEMP,276.401114826
IC,232,TEMP,277.345101948
IC,233,TEMP,277.049997541
IC,234,TEMP,277.35696513
IC,235,TEMP,277.256057136
IC,236,TEMP,277.361822957
IC,237,TEMP,277.50984713
IC,238,TEMP,277.628216017
IC,239,TEMP,286.252225241
IC,240,TEMP,287.32243322
IC,241,TEMP,286.102259996
IC,242,TEMP,287.345288988
IC,243,TEMP,285.558260701
IC,244,TEMP,286.090317594
IC,245,TEMP,284.182213478
IC,246,TEMP,286.062382285
IC,247,TEMP,279.793971019
IC,248,TEMP,279.602123102
IC,249,TEMP,272.342623514
IC,250,TEMP,272.545507368
IC,251,TEMP,266.869902249
IC,252,TEMP,266.939187372
IC,253,TEMP,258.200228285
IC,254,TEMP,258.289887538
IC,255,TEMP,255.749287559
IC,256,TEMP,255.820759933
IC,257,TEMP,257.04993488
IC,258,TEMP,257.12989261
IC,259,TEMP,263.067415529
IC,260,TEMP,263.128807819
IC,261,TEMP,266.762200781
IC,262,TEMP,266.915247651
IC,263,TEMP,271.793505997
IC,264,TEMP,271.691119271
IC,265,TEMP,274.748440015
IC,266,TEMP,276.016554042
IC,267,TEMP,275.676411022
IC,268,TEMP,276.031935922
IC,269,TEMP,275.914181124
IC,270,TEMP,276.038044287
IC,271,TEMP,276.172356909
IC,272,TEMP,276.281812544
IC,273,TEMP,285.27758863
IC,274,TEMP,286.352370584
IC,275,TEMP,285.133895412
IC,276,TEMP,286.369453248
IC,277,TEMP,284.564853241
IC,278,TEMP,285.121083581
IC,279,TEMP,283.067709751
IC,280,TEMP,285.091248105
IC,281,TEMP,278.295015105
IC,282,TEMP,278.135824126
IC,283,TEMP,270.241552873
IC,284,TEMP,270.384812375
IC,285,TEMP,264.282928565
IC,286,TEMP,264.344854691
IC,287,TEMP,254.59719635
IC,288,TEMP,254.6690057
IC,289,TEMP,251.852322118
IC,290,TEMP,251.907645135
IC,291,TEMP,253.462085501
IC,292,TEMP,253.525280255
IC,293,TEMP,260.380090296
IC,294,TEMP,260.433500785
IC,295,TEMP,264.531963979
IC,296,TEMP,264.636169498
IC,297,TEMP,270.097111471
IC,298,TEMP,269.993032732
IC,299,TEMP,273.365978743
IC,300,TEMP,274.74850533
IC,301,TEMP,274.39199748
IC,302,TEMP,274.765450833
IC,303,TEMP,274.645452835
IC,304,TEMP,274.772223588
IC,305,TEMP,274.909292449
IC,306,TEMP,275.013992924
IC,307,TEMP,283.841892389
IC,308,TEMP,284.92425872
IC,309,TEMP,283.695555352
IC,310,TEMP,284.936598226
IC,311,TEMP,283.138186336
IC,312,TEMP,283.683295819
IC,313,TEMP,281.697159565
IC,314,TEMP,283.654425239
IC,315,TEMP,277.103731064
IC,316,TEMP,276.865908062
IC,317,TEMP,269.289475125
IC,318,TEMP,269.476673416
IC,319,TEMP,263.532369407
IC,320,TEMP,263.590793935
IC,321,TEMP,254.594859765
IC,322,TEMP,254.672498786
IC,323,TEMP,252.085182872
IC,324,TEMP,252.144667254
IC,325,TEMP,253.439163466
IC,326,TEMP,253.507302678
IC,327,TEMP,259.708601222
IC,328,TEMP,259.759534637
IC,329,TEMP,263.680212779
IC,330,TEMP,263.818281481
IC,331,TEMP,269.07232048
IC,332,TEMP,268.92469066
IC,333,TEMP,272.234541157
IC,334,TEMP,273.582383012
IC,335,TEMP,273.228412897
IC,336,TEMP,273.598691715
IC,337,TEMP,273.475655293
IC,338,TEMP,273.605175608
IC,339,TEMP,273.74465243
IC,340,TEMP,273.846358919
IC,341,TEMP,281.979940921
IC,342,TEMP,283.07412108
IC,343,TEMP,281.818169181
IC,344,TEMP,283.10500193
IC,345,TEMP,281.262692037
IC,346,TEMP,281.803588116
IC,347,TEMP,279.92579818
IC,348,TEMP,281.776291859
IC,349,TEMP,275.749132702
IC,350,TEMP,275.802179595
IC,351,TEMP,269.475227818
IC,352,TEMP,269.508257479
IC,353,TEMP,265.651987754
IC,354,TEMP,265.720138187
IC,355,TEMP,259.917201891
IC,356,TEMP,259.972565431
IC,357,TEMP,257.987933394
IC,358,TEMP,258.035286299
IC,359,TEMP,258.424356308
IC,360,TEMP,258.473540172
IC,361,TEMP,261.932309219
IC,362,TEMP,261.989972225
IC,363,TEMP,264.408852888
IC,364,TEMP,264.432159536
IC,365,TEMP,268.535430126
IC,366,TEMP,268.561400052
IC,367,TEMP,271.29456264
IC,368,TEMP,272.538511053
IC,369,TEMP,272.1825253
IC,370,TEMP,272.553730622
IC,371,TEMP,272.423837461
IC,372,TEMP,272.560338543
IC,373,TEMP,272.698065518
IC,374,TEMP,272.803354672
IC,375,TEMP,281.293875048
IC,376,TEMP,282.39102428
IC,377,TEMP,281.108786599
IC,378,TEMP,282.439294123
IC,379,TEMP,280.475834414
IC,380,TEMP,281.094029192
IC,381,TEMP,278.320167442
IC,382,TEMP,281.057592815
IC,383,TEMP,272.862903005
IC,384,TEMP,270.857751986
IC,385,TEMP,269.697409498
IC,386,TEMP,270.766767674
IC,387,TEMP,268.018218474
IC,388,TEMP,268.020795087
IC,389,TEMP,263.951473827
IC,390,TEMP,264.104591133
IC,391,TEMP,262.135754149
IC,392,TEMP,262.235669112
IC,393,TEMP,262.148802332
IC,394,TEMP,262.282725617
IC,395,TEMP,264.065032247
IC,396,TEMP,264.081678674
IC,397,TEMP,264.978872552
IC,398,TEMP,265.762203203
IC,399,TEMP,266.986240472
IC,400,TEMP,265.820039038
IC,401,TEMP,270.452272839
IC,402,TEMP,272.218745151
IC,403,TEMP,271.820565475
IC,404,TEMP,272.237815808
IC,405,TEMP,272.117394901
IC,406,TEMP,272.24549476
IC,407,TEMP,272.391880235
IC,408,TEMP,272.50010628
IC,409,TEMP,280.61641879
IC,410,TEMP,281.727441447
IC,411,TEMP,280.389194093
IC,412,TEMP,281.817835651
IC,413,TEMP,279.813806165
IC,414,TEMP,280.35055005
IC,415,TEMP,278.023255923
IC,416,TEMP,280.341868545
IC,417,TEMP,273.751960487
IC,418,TEMP,270.860620704
IC,419,TEMP,271.870708331
IC,420,TEMP,270.829610051
IC,421,TEMP,272.477698168
IC,422,TEMP,272.463184792
IC,423,TEMP,269.713435333
IC,424,TEMP,269.549581637
IC,425,TEMP,267.977494294
IC,426,TEMP,267.848736788
IC,427,TEMP,267.446347773
IC,428,TEMP,267.293465859
IC,429,TEMP,267.844575224
IC,430,TEMP,267.851655582
IC,431,TEMP,266.781113265
IC,432,TEMP,265.814194552
IC,433,TEMP,267.775623531
IC,434,TEMP,265.827043701
IC,435,TEMP,270.457777564
IC,436,TEMP,271.936745232
IC,437,TEMP,271.581398823
IC,438,TEMP,271.946260807
IC,439,TEMP,271.838930969
IC,440,TEMP,271.956257661
IC,441,TEMP,272.116200578
IC,442,TEMP,272.231197943
IC,443,TEMP,280.291173352
IC,444,TEMP,281.41898802
IC,445,TEMP,280.068514634
IC,446,TEMP,281.544295674
IC,447,TEMP,279.498646582
IC,448,TEMP,279.955248557
IC,449,TEMP,278.88888541
IC,450,TEMP,279.688275931
IC,451,TEMP,277.084008437
IC,452,TEMP,278.930203226
IC,453,TEMP,275.884570562
IC,454,TEMP,277.943445581
IC,455,TEMP,275.587001551
IC,456,TEMP,277.024220995
IC,457,TEMP,273.185353269
IC,458,TEMP,274.693419371
IC,459,TEMP,271.509824553
IC,460,TEMP,273.02610177
IC,461,TEMP,270.635030501
IC,462,TEMP,272.017317375
IC,463,TEMP,270.430113981
IC,464,TEMP,271.615900886
IC,465,TEMP,269.960321376
IC,466,TEMP,271.600508834
IC,467,TEMP,270.267009765
IC,468,TEMP,271.651937035
IC,469,TEMP,271.219952374
IC,470,TEMP,271.772445028
IC,471,TEMP,271.517649712
IC,472,TEMP,271.824207962
IC,473,TEMP,271.71453538
IC,474,TEMP,271.841950489
IC,475,TEMP,271.996596142
IC,476,TEMP,272.113067249
IC,477,TEMP,280.134062554
IC,478,TEMP,281.271426559
IC,479,TEMP,279.885613126
IC,480,TEMP,281.409131167
IC,481,TEMP,279.369172008
IC,482,TEMP,279.737241977
IC,483,TEMP,279.083469444
IC,484,TEMP,279.452061964
IC,485,TEMP,278.472052735
IC,486,TEMP,278.95867093
IC,487,TEMP,277.457187871
IC,488,TEMP,277.958341229
IC,489,TEMP,276.601049537
IC,490,TEMP,277.038943912
IC,491,TEMP,274.286417714
IC,492,TEMP,274.707743106
IC,493,TEMP,272.62944985
IC,494,TEMP,273.041065022
IC,495,TEMP,271.646161121
IC,496,TEMP,272.030560761
IC,497,TEMP,271.269349739
IC,498,TEMP,271.627691022
IC,499,TEMP,271.213563342
IC,500,TEMP,271.614311016
IC,501,TEMP,271.309443873
IC,502,TEMP,271.664663269
IC,503,TEMP,271.433709639
IC,504,TEMP,271.721470679
IC,505,TEMP,271.502155899
IC,506,TEMP,271.755373959
IC,507,TEMP,271.653239062
IC,508,TEMP,271.773591233
IC,509,TEMP,271.930118742
IC,510,TEMP,272.055938751
IC,511,TEMP,279.994179513
IC,512,TEMP,281.135408782
IC,513,TEMP,279.794924291
IC,514,TEMP,281.311160653
IC,515,TEMP,279.153665234
IC,516,TEMP,279.630978161
IC,517,TEMP,278.917359198
IC,518,TEMP,279.370070001
IC,519,TEMP,278.469047185
IC,520,TEMP,278.941471267
IC,521,TEMP,277.552648572
IC,522,TEMP,277.967887228
IC,523,TEMP,276.637605761
IC,524,TEMP,277.043831573
IC,525,TEMP,274.341620702
IC,526,TEMP,274.714318288
IC,527,TEMP,272.696973487
IC,528,TEMP,273.048030487
IC,529,TEMP,271.6984995
IC,530,TEMP,272.036610557
IC,531,TEMP,271.301650122
IC,532,TEMP,271.63207284
IC,533,TEMP,271.288042409
IC,534,TEMP,271.620133433
IC,535,TEMP,271.324023733
IC,536,TEMP,271.66196084
IC,537,TEMP,271.354476909
IC,538,TEMP,271.69692728
IC,539,TEMP,271.376090503
IC,540,TEMP,271.719299138
IC,541,TEMP,271.515285038
IC,542,TEMP,271.733153654
IC,543,TEMP,271.811614047
IC,544,TEMP,271.927330634
IC,545,TEMP,279.772564522
IC,546,TEMP,281.018163037
IC,547,TEMP,279.984594351
IC,548,TEMP,281.12621946
IC,549,TEMP,279.015522284
IC,550,TEMP,279.165427454
IC,551,TEMP,278.738440712
IC,552,TEMP,278.939456409
IC,553,TEMP,278.302661518
IC,554,TEMP,278.499314652
IC,555,TEMP,277.395122723
IC,556,TEMP,277.601349728
IC,557,TEMP,276.489270094
IC,558,TEMP,276.699905511
IC,559,TEMP,274.204081237
IC,560,TEMP,274.416166224
IC,561,TEMP,272.567903294
IC,562,TEMP,272.771102109
IC,563,TEMP,271.573962536
IC,564,TEMP,271.767118512
IC,565,TEMP,271.178920967
IC,566,TEMP,271.355160166
IC,567,TEMP,271.163162044
IC,568,TEMP,271.330477964
IC,569,TEMP,271.196681764
IC,570,TEMP,271.34877849
IC,571,TEMP,271.226050193
IC,572,TEMP,271.364430581
IC,573,TEMP,271.25228653
IC,574,TEMP,271.381296018
IC,575,TEMP,271.385330028
IC,576,TEMP,271.512015178
IC,577,TEMP,271.663886419
IC,578,TEMP,271.80325971
IC,579,TEMP,288.153337311
IC,580,TEMP,287.059844289
IC,581,TEMP,286.753025132
IC,582,TEMP,288.307747161
IC,583,TEMP,286.398785523
IC,584,TEMP,286.675131457
IC,585,TEMP,286.242782024
IC,586,TEMP,286.56514723
IC,587,TEMP,285.837518037
IC,588,TEMP,286.028266218
IC,589,TEMP,285.1605522
IC,590,TEMP,285.353221981
IC,591,TEMP,284.590475387
IC,592,TEMP,284.722481104
IC,593,TEMP,283.077718802
IC,594,TEMP,283.038914219
IC,595,TEMP,281.729345153
IC,596,TEMP,281.60773092
IC,597,TEMP,280.493554511
IC,598,TEMP,280.387862643
IC,599,TEMP,279.33564928
IC,600,TEMP,279.359988068
IC,601,TEMP,278.969419455
IC,602,TEMP,279.061559434
IC,603,TEMP,278.661681746
IC,604,TEMP,278.794611047
IC,605,TEMP,278.535483943
IC,606,TEMP,278.673654834
IC,607,TEMP,278.493136882
IC,608,TEMP,278.656756741
IC,609,TEMP,278.598920375
IC,610,TEMP,278.648077786
IC,611,TEMP,278.845587562
IC,612,TEMP,278.970686565
IC,613,TEMP,286.739906019
IC,614,TEMP,288.249864244
IC,615,TEMP,286.674835335
IC,616,TEMP,286.570734483
IC,617,TEMP,286.035992685
IC,618,TEMP,285.35629495
IC,619,TEMP,284.723807793
IC,620,TEMP,283.033004911
IC,621,TEMP,281.598510219
IC,622,TEMP,280.379501559
IC,623,TEMP,279.357251745
IC,624,TEMP,279.062752436
IC,625,TEMP,278.790268642
IC,626,TEMP,278.647180081
IC,627,TEMP,278.627327719
IC,628,TEMP,278.615876631
IC,629,TEMP,278.960414669
IC,630,TEMP,286.722881371
IC,631,TEMP,288.318717493
IC,632,TEMP,286.658515088
IC,633,TEMP,286.580400988
IC,634,TEMP,286.041889844
IC,635,TEMP,285.36211897
IC,636,TEMP,284.728695804
IC,637,TEMP,283.037668171
IC,638,TEMP,281.602886625
IC,639,TEMP,280.38342375
IC,640,TEMP,279.360895027
IC,641,TEMP,279.06659314
IC,642,TEMP,278.794084404
IC,643,TEMP,278.600077036
IC,644,TEMP,278.571717364
IC,645,TEMP,278.560642345
IC,646,TEMP,278.889855155
IC,647,TEMP,286.669719159
IC,648,TEMP,288.579318033
IC,649,TEMP,286.611460262
IC,650,TEMP,286.612285595
IC,651,TEMP,278.256794914
IC,652,TEMP,278.258005469
IC,653,TEMP,278.263610768
IC,654,TEMP,278.724351495
IC,655,TEMP,286.680729203
IC,656,TEMP,288.9434742
IC,657,TEMP,286.618094846
IC,658,TEMP,286.615914868
IC,659,TEMP,279.459133687
IC,660,TEMP,279.462436842
IC,661,TEMP,279.469190271
IC,662,TEMP,279.461811457
IC,663,TEMP,274.469313583
IC,664,TEMP,274.468270671
IC,665,TEMP,274.470363685
IC,666,TEMP,274.474747932
IC,667,TEMP,277.808644055
IC,668,TEMP,277.810268553
IC,669,TEMP,277.824326577
IC,670,TEMP,278.358436442
IC,671,TEMP,286.647536876
IC,672,TEMP,289.096077503
IC,673,TEMP,286.575005821
IC,674,TEMP,286.571924733
IC,675,TEMP,277.365460913
IC,676,TEMP,277.366650886
IC,677,TEMP,277.38224833
IC,678,TEMP,277.960834845
IC,679,TEMP,286.189715988
IC,680,TEMP,288.816468937
IC,681,TEMP,286.109602697
IC,682,TEMP,286.106735998
IC,683,TEMP,276.042968417
IC,684,TEMP,276.045369622
IC,685,TEMP,276.060604303
IC,686,TEMP,276.659256025
IC,687,TEMP,285.22196219
IC,688,TEMP,287.854704723
IC,689,TEMP,285.141766085
IC,690,TEMP,285.139554114
IC,691,TEMP,274.777465612
IC,692,TEMP,274.7804087
IC,693,TEMP,274.79443659
IC,694,TEMP,275.383298692
IC,695,TEMP,283.782094949
IC,696,TEMP,286.391779427
IC,697,TEMP,283.703238217
IC,698,TEMP,283.700803153
IC,699,TEMP,273.61037735
IC,700,TEMP,273.613268558
IC,701,TEMP,273.626300844
IC,702,TEMP,274.195190828
IC,703,TEMP,281.892293974
IC,704,TEMP,284.280594221
IC,705,TEMP,281.823015943
IC,706,TEMP,281.821655773
IC,707,TEMP,272.565163626
IC,708,TEMP,272.568124523
IC,709,TEMP,272.578134231
IC,710,TEMP,273.07925549
IC,711,TEMP,281.172846197
IC,712,TEMP,283.381211163
IC,713,TEMP,281.114754303
IC,714,TEMP,281.115187011
IC,715,TEMP,272.250867182
IC,716,TEMP,272.255129086
IC,717,TEMP,272.261555847
IC,718,TEMP,272.726413483
IC,719,TEMP,280.42986075
IC,720,TEMP,282.269204632
IC,721,TEMP,280.368113077
IC,722,TEMP,280.370296965
IC,723,TEMP,270.746911247
IC,724,TEMP,270.755495654
IC,725,TEMP,270.749162833
IC,726,TEMP,270.744848548
IC,727,TEMP,265.7557425
IC,728,TEMP,265.750177897
IC,729,TEMP,265.748753637
IC,730,TEMP,265.750758605
IC,731,TEMP,271.953296194
IC,732,TEMP,271.955840057
IC,733,TEMP,271.963263238
IC,734,TEMP,272.343398486
IC,735,TEMP,279.987303626
IC,736,TEMP,281.631374754
IC,737,TEMP,279.902757887
IC,738,TEMP,279.786568012
IC,739,TEMP,271.751018187
IC,740,TEMP,271.741942825
IC,741,TEMP,271.759643321
IC,742,TEMP,272.131742825
IC,743,TEMP,279.911312949
IC,744,TEMP,281.415997937
IC,745,TEMP,279.827364388
IC,746,TEMP,279.697158209
IC,747,TEMP,278.983549828
IC,748,TEMP,278.977141663
IC,749,TEMP,277.981935298
IC,750,TEMP,277.972454437
IC,751,TEMP,277.057953112
IC,752,TEMP,277.050222695
IC,753,TEMP,274.727053493
IC,754,TEMP,274.718569717
IC,755,TEMP,273.060455002
IC,756,TEMP,273.051950002
IC,757,TEMP,272.04823119
IC,758,TEMP,272.040459958
IC,759,TEMP,271.643488953
IC,760,TEMP,271.636977687
IC,761,TEMP,271.633149886
IC,762,TEMP,271.625648471
IC,763,TEMP,271.676109861
IC,764,TEMP,271.671813637
IC,765,TEMP,271.708741772
IC,766,TEMP,271.713933938
IC,767,TEMP,271.720820479
IC,768,TEMP,272.055439611
IC,769,TEMP,279.869635129
IC,770,TEMP,281.377737049
IC,771,TEMP,279.776227521
IC,772,TEMP,279.643082491
IC,773,TEMP,278.949348856
IC,774,TEMP,277.954456858
IC,775,TEMP,277.026526187
IC,776,TEMP,274.691021248
IC,777,TEMP,273.024664084
IC,778,TEMP,272.015128948
IC,779,TEMP,271.617009211
IC,780,TEMP,271.609276124
IC,781,TEMP,271.65585097
IC,782,TEMP,271.686315333
IC,783,TEMP,271.691448763
IC,784,TEMP,271.697603826
IC,785,TEMP,271.966825348
IC,786,TEMP,280.098763107
IC,787,TEMP,281.227883584
IC,788,TEMP,279.417431939
IC,789,TEMP,279.185539654
IC,790,TEMP,278.541766503
IC,791,TEMP,277.389537334
IC,792,TEMP,276.384322022
IC,793,TEMP,273.961736631
IC,794,TEMP,272.308295401
IC,795,TEMP,271.345926138
IC,796,TEMP,271.072521542
IC,797,TEMP,271.136075046
IC,798,TEMP,271.299030867
IC,799,TEMP,271.40913032
IC,800,TEMP,271.441558926
IC,801,TEMP,271.564308205
IC,802,TEMP,271.842960259
IC,803,TEMP,289.498021547
IC,804,TEMP,288.425253245
IC,805,TEMP,288.154067878
IC,806,TEMP,289.66246799
IC,807,TEMP,287.867994684
IC,808,TEMP,288.146422144
IC,809,TEMP,287.923668889
IC,810,TEMP,288.178451437
IC,811,TEMP,288.21672735
IC,812,TEMP,288.271879488
IC,813,TEMP,289.53325193
IC,814,TEMP,289.610126242
IC,815,TEMP,291.024824995
IC,816,TEMP,291.116691449
IC,817,TEMP,295.06282455
IC,818,TEMP,295.208284185
IC,819,TEMP,295.71292418
IC,820,TEMP,295.889078229
IC,821,TEMP,293.651551722
IC,822,TEMP,293.811956885
IC,823,TEMP,287.260009465
IC,824,TEMP,287.382823373
IC,825,TEMP,284.318803025
IC,826,TEMP,284.38833495
IC,827,TEMP,280.970406753
IC,828,TEMP,281.109747317
IC,829,TEMP,279.426188202
IC,830,TEMP,279.098543459
IC,831,TEMP,278.981554372
IC,832,TEMP,279.099271414
IC,833,TEMP,279.045545976
IC,834,TEMP,279.104768488
IC,835,TEMP,279.296122557
IC,836,TEMP,279.428504681
IC,837,TEMP,288.167514587
IC,838,TEMP,289.95588255
IC,839,TEMP,288.152269809
IC,840,TEMP,288.178096278
IC,841,TEMP,279.106348861
IC,842,TEMP,279.095560492
IC,843,TEMP,279.116528301
IC,844,TEMP,279.535329248
IC,845,TEMP,288.226486428
IC,846,TEMP,292.441056155
IC,847,TEMP,288.152694634
IC,848,TEMP,288.16461569
IC,849,TEMP,279.124214981
IC,850,TEMP,279.10700698
IC,851,TEMP,279.147170547
IC,852,TEMP,280.030030172
IC,853,TEMP,300.160503428
IC,854,TEMP,299.889229008
IC,855,TEMP,281.466760266
IC,856,TEMP,281.511300147
IC,857,TEMP,310.033362559
IC,858,TEMP,310.312602108
IC,859,TEMP,279.378384983
IC,860,TEMP,279.367303279
IC,861,TEMP,279.360915125
IC,862,TEMP,279.368181141
IC,863,TEMP,274.42601538
IC,864,TEMP,274.43109399
IC,865,TEMP,274.424430232
IC,866,TEMP,274.420910573
IC,867,TEMP,283.271967907
IC,868,TEMP,283.20566186
IC,869,TEMP,316.062387694
IC,870,TEMP,316.118111
IC,871,TEMP,284.051868013
IC,872,TEMP,284.025791046
IC,873,TEMP,321.132184612
IC,874,TEMP,321.154280676
IC,875,TEMP,283.674210651
IC,876,TEMP,283.646327278
IC,877,TEMP,320.846703519
IC,878,TEMP,320.859083024
IC,879,TEMP,282.371799651
IC,880,TEMP,282.334456386
IC,881,TEMP,318.475648312
IC,882,TEMP,318.51898584
IC,883,TEMP,280.703175477
IC,884,TEMP,280.649334654
IC,885,TEMP,310.373754081
IC,886,TEMP,310.472943263
IC,887,TEMP,277.938553091
IC,888,TEMP,277.863987633
IC,889,TEMP,303.397856212
IC,890,TEMP,303.731062025
IC,891,TEMP,276.296493697
IC,892,TEMP,276.173431314
IC,893,TEMP,292.723445203
IC,894,TEMP,292.504999632
IC,895,TEMP,270.583455974
IC,896,TEMP,270.575441784
IC,897,TEMP,270.579744446
IC,898,TEMP,270.592851755
IC,899,TEMP,265.632574451
IC,900,TEMP,265.636855945
IC,901,TEMP,265.642614528
IC,902,TEMP,265.63558745
IC,903,TEMP,273.845546927
IC,904,TEMP,273.829652841
IC,905,TEMP,280.518858425
IC,906,TEMP,284.798360015
IC,907,TEMP,272.252521136
IC,908,TEMP,271.346389073
IC,909,TEMP,280.491800123
IC,910,TEMP,282.258845561
IC,911,TEMP,280.449210292
IC,912,TEMP,280.479509018
IC,913,TEMP,280.472941751
IC,914,TEMP,280.515933498
IC,915,TEMP,271.322892617
IC,916,TEMP,271.328378248
IC,917,TEMP,271.341483227
IC,918,TEMP,271.341027524
IC,919,TEMP,271.348621482
IC,920,TEMP,271.736446583
IC,921,TEMP,280.489269533
IC,922,TEMP,281.948530627
IC,923,TEMP,280.479366198
IC,924,TEMP,280.497969616
IC,925,TEMP,271.340149512
IC,926,TEMP,271.325309013
IC,927,TEMP,271.348025101
IC,928,TEMP,271.61516106
IC,929,TEMP,280.69746626
IC,930,TEMP,281.805211375
IC,931,TEMP,279.979466301
IC,932,TEMP,278.84265494
IC,933,TEMP,275.005576945
IC,934,TEMP,275.287496767
IC,935,TEMP,269.65246647
IC,936,TEMP,269.694431486
IC,937,TEMP,265.750461261
IC,938,TEMP,265.907241327
IC,939,TEMP,260.150602751
IC,940,TEMP,260.329542414
IC,941,TEMP,258.341054491
IC,942,TEMP,258.530147479
IC,943,TEMP,258.608412721
IC,944,TEMP,258.775120505
IC,945,TEMP,261.780116517
IC,946,TEMP,261.908386639
IC,947,TEMP,264.212802845
IC,948,TEMP,264.263131052
IC,949,TEMP,267.68188857
IC,950,TEMP,267.883251531
IC,951,TEMP,270.231748976
IC,952,TEMP,270.994535174
IC,953,TEMP,271.218676541
IC,954,TEMP,271.500208666
IC,955,TEMP,289.699909167
IC,956,TEMP,288.627738477
IC,957,TEMP,288.36399989
IC,958,TEMP,289.865203758
IC,959,TEMP,288.069756406
IC,960,TEMP,288.345352732
IC,961,TEMP,288.162412493
IC,962,TEMP,288.341896713
IC,963,TEMP,288.576867623
IC,964,TEMP,288.700089376
IC,965,TEMP,290.094637727
IC,966,TEMP,290.21921737
IC,967,TEMP,291.816394355
IC,968,TEMP,291.944275063
IC,969,TEMP,296.456390983
IC,970,TEMP,296.58250269
IC,971,TEMP,297.361789787
IC,972,TEMP,297.490628448
IC,973,TEMP,295.152012064
IC,974,TEMP,295.268554559
IC,975,TEMP,288.144228743
IC,976,TEMP,288.262106951
IC,977,TEMP,284.905777446
IC,978,TEMP,284.990775121
IC,979,TEMP,281.260677636
IC,980,TEMP,281.434008722
IC,981,TEMP,279.553182469
IC,982,TEMP,279.178817167
IC,983,TEMP,279.057395092
IC,984,TEMP,279.172500439
IC,985,TEMP,279.109925135
IC,986,TEMP,279.17482034
IC,987,TEMP,279.359201584
IC,988,TEMP,279.491773058
IC,989,TEMP,288.377262083
IC,990,TEMP,290.183250615
IC,991,TEMP,288.351829134
IC,992,TEMP,288.341912691
IC,993,TEMP,279.173565021
IC,994,TEMP,279.169959203
IC,995,TEMP,279.180350421
IC,996,TEMP,279.600230048
IC,997,TEMP,288.429062303
IC,998,TEMP,292.766007544
IC,999,TEMP,288.346696937
IC,1000,TEMP,288.336773359
IC,1001,TEMP,283.169384913
IC,1002,TEMP,282.483205347
IC,1003,TEMP,283.157472806
IC,1004,TEMP,282.476258465
IC,1005,TEMP,278.856223624
IC,1006,TEMP,278.822009589
IC,1007,TEMP,278.870836647
IC,1008,TEMP,278.840596351
IC,1009,TEMP,276.424202903
IC,1010,TEMP,276.353062621
IC,1011,TEMP,276.436554039
IC,1012,TEMP,276.364299815
IC,1013,TEMP,272.662250326
IC,1014,TEMP,272.522208801
IC,1015,TEMP,272.678752238
IC,1016,TEMP,272.538220418
IC,1017,TEMP,271.597938306
IC,1018,TEMP,271.470137487
IC,1019,TEMP,271.616520681
IC,1020,TEMP,271.488136999
IC,1021,TEMP,271.611705147
IC,1022,TEMP,271.484666798
IC,1023,TEMP,271.628001825
IC,1024,TEMP,271.50074019
IC,1025,TEMP,273.232105312
IC,1026,TEMP,273.155290995
IC,1027,TEMP,273.244250824
IC,1028,TEMP,273.16687723
IC,1029,TEMP,274.351526832
IC,1030,TEMP,274.298048654
IC,1031,TEMP,274.362271904
IC,1032,TEMP,274.310887165
IC,1033,TEMP,276.533349394
IC,1034,TEMP,276.143219139
IC,1035,TEMP,276.529834282
IC,1036,TEMP,276.144417047
IC,1037,TEMP,279.167184248
IC,1038,TEMP,279.171893907
IC,1039,TEMP,279.191773
IC,1040,TEMP,280.117536596
IC,1041,TEMP,300.418725447
IC,1042,TEMP,300.64117535
IC,1043,TEMP,282.558252173
IC,1044,TEMP,283.299933438
IC,1045,TEMP,282.558187978
IC,1046,TEMP,283.289148482
IC,1047,TEMP,279.365601898
IC,1048,TEMP,279.358517275
IC,1049,TEMP,276.066940457
IC,1050,TEMP,276.080647941
IC,1051,TEMP,272.180079391
IC,1052,TEMP,272.194113593
IC,1053,TEMP,271.151429983
IC,1054,TEMP,271.168186312
IC,1055,TEMP,271.160110499
IC,1056,TEMP,271.173619782
IC,1057,TEMP,272.90397354
IC,1058,TEMP,272.916606496
IC,1059,TEMP,274.421837643
IC,1060,TEMP,274.425287177
IC,1061,TEMP,276.083932078
IC,1062,TEMP,276.083505181
IC,1063,TEMP,276.440636241
IC,1064,TEMP,276.439481679
IC,1065,TEMP,281.660878251
IC,1066,TEMP,281.59240557
IC,1067,TEMP,311.162348806
IC,1068,TEMP,312.023847609
IC,1069,TEMP,278.997574413
IC,1070,TEMP,279.107177295
IC,1071,TEMP,279.029466224
IC,1072,TEMP,279.133340236
IC,1073,TEMP,279.359123045
IC,1074,TEMP,279.356062842
IC,1075,TEMP,275.029100776
IC,1076,TEMP,275.043273042
IC,1077,TEMP,271.375434948
IC,1078,TEMP,271.388312134
IC,1079,TEMP,270.364599315
IC,1080,TEMP,270.379431064
IC,1081,TEMP,270.383469719
IC,1082,TEMP,270.395452964
IC,1083,TEMP,272.030620524
IC,1084,TEMP,272.042164369
IC,1085,TEMP,274.4195324
IC,1086,TEMP,274.420855743
IC,1087,TEMP,273.922530461
IC,1088,TEMP,273.932441517
IC,1089,TEMP,273.917602244
IC,1090,TEMP,273.92498784
IC,1091,TEMP,283.699039786
IC,1092,TEMP,283.496554867
IC,1093,TEMP,317.779569742
IC,1094,TEMP,318.48777512
IC,1095,TEMP,276.53494721
IC,1096,TEMP,276.692766534
IC,1097,TEMP,276.561326152
IC,1098,TEMP,276.720752328
IC,1099,TEMP,276.142042582
IC,1100,TEMP,276.168533726
IC,1101,TEMP,275.004060053
IC,1102,TEMP,275.025249218
IC,1103,TEMP,273.446755579
IC,1104,TEMP,273.460171374
IC,1105,TEMP,270.40035752
IC,1106,TEMP,270.413631272
IC,1107,TEMP,269.382372441
IC,1108,TEMP,269.39604762
IC,1109,TEMP,269.421791584
IC,1110,TEMP,269.43400592
IC,1111,TEMP,270.747059152
IC,1112,TEMP,270.756560735
IC,1113,TEMP,271.455065289
IC,1114,TEMP,271.464384748
IC,1115,TEMP,271.913518489
IC,1116,TEMP,271.922691955
IC,1117,TEMP,272.046851915
IC,1118,TEMP,272.054602524
IC,1119,TEMP,272.07997772
IC,1120,TEMP,272.08832684
IC,1121,TEMP,284.633345351
IC,1122,TEMP,284.45801347
IC,1123,TEMP,323.61694119
IC,1124,TEMP,324.348597311
IC,1125,TEMP,271.521158024
IC,1126,TEMP,271.761401113
IC,1127,TEMP,271.554723999
IC,1128,TEMP,271.795732088
IC,1129,TEMP,271.058948637
IC,1130,TEMP,271.085705492
IC,1131,TEMP,270.17348803
IC,1132,TEMP,270.195031261
IC,1133,TEMP,269.247202976
IC,1134,TEMP,269.264215471
IC,1135,TEMP,267.515920883
IC,1136,TEMP,267.532385708
IC,1137,TEMP,266.644321938
IC,1138,TEMP,266.660860489
IC,1139,TEMP,266.631727871
IC,1140,TEMP,266.645923973
IC,1141,TEMP,267.185653386
IC,1142,TEMP,267.197141979
IC,1143,TEMP,267.475509325
IC,1144,TEMP,267.48451953
IC,1145,TEMP,267.761881731
IC,1146,TEMP,267.771292428
IC,1147,TEMP,267.911809089
IC,1148,TEMP,267.921806994
IC,1149,TEMP,267.991746826
IC,1150,TEMP,268.001697788
IC,1151,TEMP,284.429983986
IC,1152,TEMP,284.247917662
IC,1153,TEMP,323.419811544
IC,1154,TEMP,324.140115967
IC,1155,TEMP,268.891996384
IC,1156,TEMP,269.123798079
IC,1157,TEMP,268.927043898
IC,1158,TEMP,269.160882723
IC,1159,TEMP,268.453792907
IC,1160,TEMP,268.484449246
IC,1161,TEMP,267.593981873
IC,1162,TEMP,267.619350737
IC,1163,TEMP,266.675890531
IC,1164,TEMP,266.695171472
IC,1165,TEMP,265.121547492
IC,1166,TEMP,265.140981089
IC,1167,TEMP,264.349414529
IC,1168,TEMP,264.368600802
IC,1169,TEMP,264.301908492
IC,1170,TEMP,264.318043722
IC,1171,TEMP,264.762101595
IC,1172,TEMP,264.775433533
IC,1173,TEMP,265.054107655
IC,1174,TEMP,265.065221477
IC,1175,TEMP,265.321547869
IC,1176,TEMP,265.332422703
IC,1177,TEMP,265.456562083
IC,1178,TEMP,265.46725396
IC,1179,TEMP,265.527718204
IC,1180,TEMP,265.538199353
IC,1181,TEMP,283.128874867
IC,1182,TEMP,282.944202947
IC,1183,TEMP,320.944268932
IC,1184,TEMP,321.689458955
IC,1185,TEMP,267.496666534
IC,1186,TEMP,267.734908221
IC,1187,TEMP,267.528351717
IC,1188,TEMP,267.76778627
IC,1189,TEMP,267.034856131
IC,1190,TEMP,267.059955111
IC,1191,TEMP,266.157585442
IC,1192,TEMP,266.178307398
IC,1193,TEMP,265.239563673
IC,1194,TEMP,265.255698384
IC,1195,TEMP,263.562990204
IC,1196,TEMP,263.578379066
IC,1197,TEMP,262.748307864
IC,1198,TEMP,262.764203407
IC,1199,TEMP,262.71696502
IC,1200,TEMP,262.730397256
IC,1201,TEMP,263.224636711
IC,1202,TEMP,263.235406262
IC,1203,TEMP,263.517241999
IC,1204,TEMP,263.525770348
IC,1205,TEMP,263.803211823
IC,1206,TEMP,263.811297775
IC,1207,TEMP,263.955551156
IC,1208,TEMP,263.964594812
IC,1209,TEMP,264.035515365
IC,1210,TEMP,264.044135066
IC,1211,TEMP,281.398265515
IC,1212,TEMP,281.205327042
IC,1213,TEMP,312.039450924
IC,1214,TEMP,312.76586824
IC,1215,TEMP,268.784779322
IC,1216,TEMP,268.962179776
IC,1217,TEMP,268.808678527
IC,1218,TEMP,268.988159938
IC,1219,TEMP,268.376933547
IC,1220,TEMP,268.402191418
IC,1221,TEMP,267.208722605
IC,1222,TEMP,267.228378139
IC,1223,TEMP,265.645198444
IC,1224,TEMP,265.655493563
IC,1225,TEMP,262.76369164
IC,1226,TEMP,262.773531929
IC,1227,TEMP,261.800885352
IC,1228,TEMP,261.811132735
IC,1229,TEMP,261.827460787
IC,1230,TEMP,261.836413315
IC,1231,TEMP,262.984042698
IC,1232,TEMP,262.990318912
IC,1233,TEMP,263.690360144
IC,1234,TEMP,263.69828136
IC,1235,TEMP,264.181783908
IC,1236,TEMP,264.190569178
IC,1237,TEMP,264.334592757
IC,1238,TEMP,264.34098767
IC,1239,TEMP,264.39032776
IC,1240,TEMP,264.397154039
IC,1241,TEMP,278.392334627
IC,1242,TEMP,278.201721437
IC,1243,TEMP,304.458951485
IC,1244,TEMP,305.348061903
IC,1245,TEMP,270.435751118
IC,1246,TEMP,270.576027084
IC,1247,TEMP,270.46270075
IC,1248,TEMP,270.596269132
IC,1249,TEMP,270.565356424
IC,1250,TEMP,270.560591686
IC,1251,TEMP,266.248468984
IC,1252,TEMP,266.254877915
IC,1253,TEMP,262.600729517
IC,1254,TEMP,262.603038478
IC,1255,TEMP,261.627191618
IC,1256,TEMP,261.630534422
IC,1257,TEMP,261.648792623
IC,1258,TEMP,261.650818218
IC,1259,TEMP,263.277288806
IC,1260,TEMP,263.281012361
IC,1261,TEMP,265.62150406
IC,1262,TEMP,265.624559585
IC,1263,TEMP,265.373267099
IC,1264,TEMP,265.379006199
IC,1265,TEMP,265.403281598
IC,1266,TEMP,265.405364317
IC,1267,TEMP,276.591432716
IC,1268,TEMP,276.366596874
IC,1269,TEMP,292.915886715
IC,1270,TEMP,293.164459539
IC,1271,TEMP,273.97511738
IC,1272,TEMP,274.815579482
IC,1273,TEMP,273.98261249
IC,1274,TEMP,274.811094827
IC,1275,TEMP,270.571765632
IC,1276,TEMP,270.562917572
IC,1277,TEMP,266.574130303
IC,1278,TEMP,266.575938792
IC,1279,TEMP,262.536495239
IC,1280,TEMP,262.535787075
IC,1281,TEMP,261.512886985
IC,1282,TEMP,261.513139485
IC,1283,TEMP,261.559968772
IC,1284,TEMP,261.559210927
IC,1285,TEMP,263.435128653
IC,1286,TEMP,263.435917708
IC,1287,TEMP,265.623667567
IC,1288,TEMP,265.628870755
IC,1289,TEMP,267.469821632
IC,1290,TEMP,267.477952904
IC,1291,TEMP,267.919919529
IC,1292,TEMP,267.925349261
IC,1293,TEMP,273.928945173
IC,1294,TEMP,273.831856764
IC,1295,TEMP,280.646276763
IC,1296,TEMP,285.029966464
IC,1297,TEMP,280.552936555
IC,1298,TEMP,280.564284679
IC,1299,TEMP,273.774665362
IC,1300,TEMP,273.769591207
IC,1301,TEMP,269.561895154
IC,1302,TEMP,269.565154222
IC,1303,TEMP,266.637860787
IC,1304,TEMP,266.634872891
IC,1305,TEMP,262.541705548
IC,1306,TEMP,262.539546174
IC,1307,TEMP,261.486649439
IC,1308,TEMP,261.484233871
IC,1309,TEMP,261.550219818
IC,1310,TEMP,261.547770603
IC,1311,TEMP,263.465258426
IC,1312,TEMP,263.462711439
IC,1313,TEMP,265.043167577
IC,1314,TEMP,265.041348084
IC,1315,TEMP,267.401538905
IC,1316,TEMP,267.405911367
IC,1317,TEMP,271.287800152
IC,1318,TEMP,271.293855339
IC,1319,TEMP,272.239043285
IC,1320,TEMP,271.312437234
IC,1321,TEMP,280.594362234
IC,1322,TEMP,282.386636757
IC,1323,TEMP,280.56744265
IC,1324,TEMP,280.55938046
IC,1325,TEMP,274.485770278
IC,1326,TEMP,274.480719749
IC,1327,TEMP,269.500282073
IC,1328,TEMP,269.499146876
IC,1329,TEMP,266.624366053
IC,1330,TEMP,266.621146769
IC,1331,TEMP,262.567784637
IC,1332,TEMP,262.564734875
IC,1333,TEMP,261.48759699
IC,1334,TEMP,261.484515336
IC,1335,TEMP,261.564529005
IC,1336,TEMP,261.56137766
IC,1337,TEMP,263.457962822
IC,1338,TEMP,263.455593573
IC,1339,TEMP,265.002859961
IC,1340,TEMP,264.99830657
IC,1341,TEMP,267.809643151
IC,1342,TEMP,267.8139514
IC,1343,TEMP,271.291818421
IC,1344,TEMP,271.2934476
IC,1345,TEMP,271.301524835
IC,1346,TEMP,271.697198871
IC,1347,TEMP,280.581420947
IC,1348,TEMP,282.044316555
IC,1349,TEMP,280.556065457
IC,1350,TEMP,280.530188606
IC,1351,TEMP,271.287441296
IC,1352,TEMP,271.271051181
IC,1353,TEMP,271.296472986
IC,1354,TEMP,271.567302911
IC,1355,TEMP,280.791597715
IC,1356,TEMP,281.899830017
IC,1357,TEMP,280.052565762
IC,1358,TEMP,278.861255917
IC,1359,TEMP,274.974357306
IC,1360,TEMP,275.105062031
IC,1361,TEMP,269.214469407
IC,1362,TEMP,269.070818773
IC,1363,TEMP,265.013834
IC,1364,TEMP,264.946531051
IC,1365,TEMP,258.950618546
IC,1366,TEMP,258.875679833
IC,1367,TEMP,257.090133258
IC,1368,TEMP,257.027382602
IC,1369,TEMP,257.485981042
IC,1370,TEMP,257.418908826
IC,1371,TEMP,261.079240264
IC,1372,TEMP,261.020093692
IC,1373,TEMP,263.756542406
IC,1374,TEMP,263.648938778
IC,1375,TEMP,267.540634588
IC,1376,TEMP,267.621440323
IC,1377,TEMP,270.133192198
IC,1378,TEMP,270.937493761
IC,1379,TEMP,271.170536335
IC,1380,TEMP,271.451618706
IC,1381,TEMP,290.762050749
IC,1382,TEMP,289.693293657
IC,1383,TEMP,289.429562277
IC,1384,TEMP,290.932274268
IC,1385,TEMP,289.165346862
IC,1386,TEMP,289.406503371
IC,1387,TEMP,289.492162287
IC,1388,TEMP,289.404894968
IC,1389,TEMP,290.695808763
IC,1390,TEMP,290.851877929
IC,1391,TEMP,293.763849032
IC,1392,TEMP,293.865484073
IC,1393,TEMP,296.859221101
IC,1394,TEMP,296.97928015
IC,1395,TEMP,304.708660664
IC,1396,TEMP,304.80906945
IC,1397,TEMP,306.714092584
IC,1398,TEMP,306.819913101
IC,1399,TEMP,303.69882462
IC,1400,TEMP,303.789910247
IC,1401,TEMP,293.34981471
IC,1402,TEMP,293.462088878
IC,1403,TEMP,288.498639266
IC,1404,TEMP,288.559886982
IC,1405,TEMP,282.967791318
IC,1406,TEMP,283.188613938
IC,1407,TEMP,280.280826771
IC,1408,TEMP,279.559900892
IC,1409,TEMP,279.485622214
IC,1410,TEMP,279.547962712
IC,1411,TEMP,279.495184169
IC,1412,TEMP,279.547461396
IC,1413,TEMP,279.742888073
IC,1414,TEMP,279.876132415
IC,1415,TEMP,289.443764833
IC,1416,TEMP,291.296336714
IC,1417,TEMP,289.411216242
IC,1418,TEMP,289.398130925
IC,1419,TEMP,279.54419255
IC,1420,TEMP,279.540361327
IC,1421,TEMP,279.549926448
IC,1422,TEMP,279.990559304
IC,1423,TEMP,289.500656511
IC,1424,TEMP,294.186032992
IC,1425,TEMP,289.404746597
IC,1426,TEMP,289.391393412
IC,1427,TEMP,279.540501722
IC,1428,TEMP,279.535942818
IC,1429,TEMP,279.561607496
IC,1430,TEMP,280.589882656
IC,1431,TEMP,302.949439264
IC,1432,TEMP,303.101309058
IC,1433,TEMP,282.413003005
IC,1434,TEMP,282.363864642
IC,1435,TEMP,315.804503762
IC,1436,TEMP,316.663998096
IC,1437,TEMP,279.335254896
IC,1438,TEMP,279.327418531
IC,1439,TEMP,279.322969455
IC,1440,TEMP,279.328809332
IC,1441,TEMP,274.414371171
IC,1442,TEMP,274.417196083
IC,1443,TEMP,274.413362326
IC,1444,TEMP,274.411500752
IC,1445,TEMP,285.002145711
IC,1446,TEMP,284.799683117
IC,1447,TEMP,324.37044235
IC,1448,TEMP,325.059056674
IC,1449,TEMP,286.401987748
IC,1450,TEMP,286.231341687
IC,1451,TEMP,332.748156428
IC,1452,TEMP,333.474466361
IC,1453,TEMP,286.788118848
IC,1454,TEMP,286.607434303
IC,1455,TEMP,333.118652634
IC,1456,TEMP,333.830168855
IC,1457,TEMP,285.593033117
IC,1458,TEMP,285.410185007
IC,1459,TEMP,330.052430855
IC,1460,TEMP,330.792317408
IC,1461,TEMP,283.598493161
IC,1462,TEMP,283.406328857
IC,1463,TEMP,318.356343918
IC,1464,TEMP,319.062678429
IC,1465,TEMP,279.705823113
IC,1466,TEMP,279.519807136
IC,1467,TEMP,308.709038853
IC,1468,TEMP,309.596330299
IC,1469,TEMP,277.360566864
IC,1470,TEMP,277.135081093
IC,1471,TEMP,294.930029104
IC,1472,TEMP,295.105537963
IC,1473,TEMP,270.489919334
IC,1474,TEMP,270.487790266
IC,1475,TEMP,270.486533956
IC,1476,TEMP,270.493693441
IC,1477,TEMP,265.575429086
IC,1478,TEMP,265.573638725
IC,1479,TEMP,265.5747041
IC,1480,TEMP,265.572598739
IC,1481,TEMP,274.086936235
IC,1482,TEMP,274.008957572
IC,1483,TEMP,281.122733737
IC,1484,TEMP,285.868888875
IC,1485,TEMP,272.095327297
IC,1486,TEMP,271.06695453
IC,1487,TEMP,281.063343815
IC,1488,TEMP,282.896020026
IC,1489,TEMP,281.025280937
IC,1490,TEMP,281.026833294
IC,1491,TEMP,281.010537654
IC,1492,TEMP,281.015558168
IC,1493,TEMP,271.039812757
IC,1494,TEMP,271.04562034
IC,1495,TEMP,271.044242448
IC,1496,TEMP,271.0424029
IC,1497,TEMP,271.053611049
IC,1498,TEMP,271.461412054
IC,1499,TEMP,281.043524791
IC,1500,TEMP,282.496139082
IC,1501,TEMP,281.009346753
IC,1502,TEMP,280.976694462
IC,1503,TEMP,271.035136049
IC,1504,TEMP,271.01567618
IC,1505,TEMP,271.045705142
IC,1506,TEMP,271.315476461
IC,1507,TEMP,281.24037489
IC,1508,TEMP,282.348411059
IC,1509,TEMP,280.46412792
IC,1510,TEMP,279.049714757
IC,1511,TEMP,274.399447624
IC,1512,TEMP,274.574470728
IC,1513,TEMP,267.265225413
IC,1514,TEMP,267.114749957
IC,1515,TEMP,261.80447014
IC,1516,TEMP,261.742645123
IC,1517,TEMP,253.730282222
IC,1518,TEMP,253.650393432
IC,1519,TEMP,251.4771062
IC,1520,TEMP,251.411272322
IC,1521,TEMP,252.542303781
IC,1522,TEMP,252.471228194
IC,1523,TEMP,257.971933901
IC,1524,TEMP,257.916807581
IC,1525,TEMP,261.668055119
IC,1526,TEMP,261.555460712
IC,1527,TEMP,266.525611738
IC,1528,TEMP,266.637482889
IC,1529,TEMP,269.693288183
IC,1530,TEMP,270.66045263
IC,1531,TEMP,270.918103891
IC,1532,TEMP,271.200300629
IC,1533,TEMP,290.842113101
IC,1534,TEMP,289.774426788
IC,1535,TEMP,289.514906813
IC,1536,TEMP,291.013075622
IC,1537,TEMP,289.250713615
IC,1538,TEMP,289.493324907
IC,1539,TEMP,289.5937336
IC,1540,TEMP,289.492700501
IC,1541,TEMP,290.848169127
IC,1542,TEMP,291.016663374
IC,1543,TEMP,294.013801057
IC,1544,TEMP,294.129648594
IC,1545,TEMP,297.200696005
IC,1546,TEMP,297.339698115
IC,1547,TEMP,305.249608207
IC,1548,TEMP,305.37781792
IC,1549,TEMP,307.329318763
IC,1550,TEMP,307.465067409
IC,1551,TEMP,304.248203423
IC,1552,TEMP,304.366257791
IC,1553,TEMP,293.681114342
IC,1554,TEMP,293.809490555
IC,1555,TEMP,288.72525008
IC,1556,TEMP,288.797332146
IC,1557,TEMP,283.077577685
IC,1558,TEMP,283.306580021
IC,1559,TEMP,280.328411111
IC,1560,TEMP,279.591025665
IC,1561,TEMP,279.515048483
IC,1562,TEMP,279.578713195
IC,1563,TEMP,279.521513133
IC,1564,TEMP,279.578222452
IC,1565,TEMP,279.769253534
IC,1566,TEMP,279.902631508
IC,1567,TEMP,289.529561856
IC,1568,TEMP,291.380781109
IC,1569,TEMP,289.496997703
IC,1570,TEMP,289.482957001
IC,1571,TEMP,279.574954903
IC,1572,TEMP,279.570413302
IC,1573,TEMP,279.581484419
IC,1574,TEMP,280.019293416
IC,1575,TEMP,289.587112662
IC,1576,TEMP,294.290659942
IC,1577,TEMP,289.489285843
IC,1578,TEMP,289.465360596
IC,1579,TEMP,283.819554442
IC,1580,TEMP,283.012638693
IC,1581,TEMP,283.815626678
IC,1582,TEMP,283.011508034
IC,1583,TEMP,279.302682302
IC,1584,TEMP,279.182897111
IC,1585,TEMP,279.312754301
IC,1586,TEMP,279.195160362
IC,1587,TEMP,277.27851149
IC,1588,TEMP,277.138117858
IC,1589,TEMP,277.287807788
IC,1590,TEMP,277.158433526
IC,1591,TEMP,275.037626574
IC,1592,TEMP,274.825475864
IC,1593,TEMP,275.05075602
IC,1594,TEMP,274.841814672
IC,1595,TEMP,274.581570768
IC,1596,TEMP,274.384118241
IC,1597,TEMP,274.595233725
IC,1598,TEMP,274.401813368
IC,1599,TEMP,274.179995993
IC,1600,TEMP,273.99644714
IC,1601,TEMP,274.192229043
IC,1602,TEMP,274.011465581
IC,1603,TEMP,274.252294634
IC,1604,TEMP,274.126016859
IC,1605,TEMP,274.26084709
IC,1606,TEMP,274.139962903
IC,1607,TEMP,274.804657212
IC,1608,TEMP,274.678468223
IC,1609,TEMP,274.811008645
IC,1610,TEMP,274.68680548
IC,1611,TEMP,276.840545807
IC,1612,TEMP,276.390965252
IC,1613,TEMP,276.841202698
IC,1614,TEMP,276.39330938
IC,1615,TEMP,279.560700441
IC,1616,TEMP,279.570803536
IC,1617,TEMP,279.593591056
IC,1618,TEMP,280.624713063
IC,1619,TEMP,303.123278685
IC,1620,TEMP,303.269654145
IC,1621,TEMP,283.1329006
IC,1622,TEMP,284.013810716
IC,1623,TEMP,283.133632619
IC,1624,TEMP,284.010881896
IC,1625,TEMP,279.339778235
IC,1626,TEMP,279.325417771
IC,1627,TEMP,276.671403473
IC,1628,TEMP,276.642795315
IC,1629,TEMP,274.199245581
IC,1630,TEMP,274.203902124
IC,1631,TEMP,273.832932698
IC,1632,TEMP,273.834069601
IC,1633,TEMP,273.460266275
IC,1634,TEMP,273.463713554
IC,1635,TEMP,273.773021756
IC,1636,TEMP,273.762493151
IC,1637,TEMP,274.414381128
IC,1638,TEMP,274.420151044
IC,1639,TEMP,276.317324914
IC,1640,TEMP,276.317743988
IC,1641,TEMP,276.729839253
IC,1642,TEMP,276.729198976
IC,1643,TEMP,282.465849862
IC,1644,TEMP,282.418583265
IC,1645,TEMP,316.077789954
IC,1646,TEMP,316.9294512
IC,1647,TEMP,279.54786425
IC,1648,TEMP,279.7809895
IC,1649,TEMP,279.563233968
IC,1650,TEMP,279.792952925
IC,1651,TEMP,279.327252876
IC,1652,TEMP,279.318193268
IC,1653,TEMP,274.649964692
IC,1654,TEMP,274.821484585
IC,1655,TEMP,272.419071822
IC,1656,TEMP,272.465768939
IC,1657,TEMP,272.244594543
IC,1658,TEMP,272.31402064
IC,1659,TEMP,271.951547744
IC,1660,TEMP,271.999354991
IC,1661,TEMP,272.438931368
IC,1662,TEMP,272.530565627
IC,1663,TEMP,274.409472759
IC,1664,TEMP,274.412582086
IC,1665,TEMP,274.27875613
IC,1666,TEMP,274.283744292
IC,1667,TEMP,274.335614054
IC,1668,TEMP,274.339685339
IC,1669,TEMP,285.08373535
IC,1670,TEMP,284.882351511
IC,1671,TEMP,324.718529921
IC,1672,TEMP,325.3913942
IC,1673,TEMP,277.809671038
IC,1674,TEMP,278.069626931
IC,1675,TEMP,277.833445085
IC,1676,TEMP,278.08235745
IC,1677,TEMP,277.18338604
IC,1678,TEMP,277.158774456
IC,1679,TEMP,274.89423943
IC,1680,TEMP,275.075164184
IC,1681,TEMP,270.919103709
IC,1682,TEMP,270.241706816
IC,1683,TEMP,270.119519095
IC,1684,TEMP,270.002169246
IC,1685,TEMP,270.118498057
IC,1686,TEMP,269.913072192
IC,1687,TEMP,269.980522774
IC,1688,TEMP,269.861203609
IC,1689,TEMP,270.259009212
IC,1690,TEMP,269.924321784
IC,1691,TEMP,271.96764051
IC,1692,TEMP,272.052827169
IC,1693,TEMP,272.837887742
IC,1694,TEMP,272.82291381
IC,1695,TEMP,273.035959007
IC,1696,TEMP,273.044807916
IC,1697,TEMP,273.100269701
IC,1698,TEMP,273.103703885
IC,1699,TEMP,286.503200107
IC,1700,TEMP,286.333664447
IC,1701,TEMP,333.287549691
IC,1702,TEMP,333.990428998
IC,1703,TEMP,275.205351661
IC,1704,TEMP,275.536197142
IC,1705,TEMP,275.226918109
IC,1706,TEMP,275.553606144
IC,1707,TEMP,274.443363557
IC,1708,TEMP,274.452000806
IC,1709,TEMP,272.558715926
IC,1710,TEMP,272.62404396
IC,1711,TEMP,270.147763717
IC,1712,TEMP,270.00741511
IC,1713,TEMP,269.825139919
IC,1714,TEMP,269.884881888
IC,1715,TEMP,269.781996595
IC,1716,TEMP,269.798752297
IC,1717,TEMP,269.715082738
IC,1718,TEMP,269.756891182
IC,1719,TEMP,269.771139705
IC,1720,TEMP,269.764304242
IC,1721,TEMP,270.341186091
IC,1722,TEMP,270.351047395
IC,1723,TEMP,270.829484671
IC,1724,TEMP,270.834453145
IC,1725,TEMP,271.028443324
IC,1726,TEMP,271.033852308
IC,1727,TEMP,271.111912648
IC,1728,TEMP,271.116651434
IC,1729,TEMP,286.93769869
IC,1730,TEMP,286.759372469
IC,1731,TEMP,333.700031787
IC,1732,TEMP,334.385389032
IC,1733,TEMP,274.249772918
IC,1734,TEMP,274.558397897
IC,1735,TEMP,274.27323211
IC,1736,TEMP,274.576851646
IC,1737,TEMP,273.61360239
IC,1738,TEMP,273.622948087
IC,1739,TEMP,272.081889831
IC,1740,TEMP,272.162620423
IC,1741,TEMP,270.073857514
IC,1742,TEMP,269.880332775
IC,1743,TEMP,269.748258768
IC,1744,TEMP,269.767061261
IC,1745,TEMP,269.701214791
IC,1746,TEMP,269.692751117
IC,1747,TEMP,269.636135694
IC,1748,TEMP,269.646015592
IC,1749,TEMP,269.647330513
IC,1750,TEMP,269.640613998
IC,1751,TEMP,269.829793165
IC,1752,TEMP,269.841199081
IC,1753,TEMP,270.008682279
IC,1754,TEMP,270.014225013
IC,1755,TEMP,270.108105799
IC,1756,TEMP,270.113354697
IC,1757,TEMP,270.16600476
IC,1758,TEMP,270.170408512
IC,1759,TEMP,285.746977597
IC,1760,TEMP,285.566004841
IC,1761,TEMP,330.584503426
IC,1762,TEMP,331.301943202
IC,1763,TEMP,273.080280302
IC,1764,TEMP,273.346909014
IC,1765,TEMP,273.100769187
IC,1766,TEMP,273.362567989
IC,1767,TEMP,272.562452119
IC,1768,TEMP,272.570539531
IC,1769,TEMP,271.423948141
IC,1770,TEMP,271.487692525
IC,1771,TEMP,269.896846663
IC,1772,TEMP,269.762498426
IC,1773,TEMP,269.653198251
IC,1774,TEMP,269.669915906
IC,1775,TEMP,269.601602402
IC,1776,TEMP,269.598178506
IC,1777,TEMP,269.54538252
IC,1778,TEMP,269.543757856
IC,1779,TEMP,269.526843186
IC,1780,TEMP,269.523096412
IC,1781,TEMP,269.253100798
IC,1782,TEMP,269.26313344
IC,1783,TEMP,269.02293371
IC,1784,TEMP,269.026710439
IC,1785,TEMP,268.988321815
IC,1786,TEMP,268.992673111
IC,1787,TEMP,269.012551784
IC,1788,TEMP,269.016124663
IC,1789,TEMP,283.728933941
IC,1790,TEMP,283.537490198
IC,1791,TEMP,318.676858262
IC,1792,TEMP,319.370842662
IC,1793,TEMP,271.303986569
IC,1794,TEMP,271.524741584
IC,1795,TEMP,271.31731767
IC,1796,TEMP,271.537025815
IC,1797,TEMP,270.953305827
IC,1798,TEMP,270.969309241
IC,1799,TEMP,270.274838952
IC,1800,TEMP,270.302473887
IC,1801,TEMP,269.707755006
IC,1802,TEMP,269.693380212
IC,1803,TEMP,269.532444551
IC,1804,TEMP,269.610954273
IC,1805,TEMP,269.425736242
IC,1806,TEMP,269.531500325
IC,1807,TEMP,269.399428714
IC,1808,TEMP,269.473323223
IC,1809,TEMP,269.058138188
IC,1810,TEMP,269.382307868
IC,1811,TEMP,267.383365142
IC,1812,TEMP,267.316287407
IC,1813,TEMP,266.654325885
IC,1814,TEMP,266.679859495
IC,1815,TEMP,266.582476113
IC,1816,TEMP,266.580931715
IC,1817,TEMP,266.611703405
IC,1818,TEMP,266.615489201
IC,1819,TEMP,279.77073174
IC,1820,TEMP,279.583318548
IC,1821,TEMP,308.946552108
IC,1822,TEMP,309.829609784
IC,1823,TEMP,271.294772375
IC,1824,TEMP,271.587271357
IC,1825,TEMP,271.308636072
IC,1826,TEMP,271.596073111
IC,1827,TEMP,270.481683163
IC,1828,TEMP,270.477717376
IC,1829,TEMP,269.199989365
IC,1830,TEMP,269.205112059
IC,1831,TEMP,268.683139136
IC,1832,TEMP,268.662247999
IC,1833,TEMP,268.441501025
IC,1834,TEMP,268.414822033
IC,1835,TEMP,268.244315567
IC,1836,TEMP,268.22568308
IC,1837,TEMP,267.014053235
IC,1838,TEMP,266.940469733
IC,1839,TEMP,265.568234582
IC,1840,TEMP,265.566313412
IC,1841,TEMP,266.048051845
IC,1842,TEMP,266.050797417
IC,1843,TEMP,266.170686351
IC,1844,TEMP,266.17076528
IC,1845,TEMP,277.399878343
IC,1846,TEMP,277.172476885
IC,1847,TEMP,295.061297057
IC,1848,TEMP,295.23383399
IC,1849,TEMP,274.289245193
IC,1850,TEMP,275.236369677
IC,1851,TEMP,274.295207292
IC,1852,TEMP,275.237371028
IC,1853,TEMP,270.491103889
IC,1854,TEMP,270.476350814
IC,1855,TEMP,268.776214342
IC,1856,TEMP,268.780407137
IC,1857,TEMP,268.048155788
IC,1858,TEMP,268.053473904
IC,1859,TEMP,267.761542391
IC,1860,TEMP,267.767345606
IC,1861,TEMP,267.355670149
IC,1862,TEMP,267.359106033
IC,1863,TEMP,265.908167086
IC,1864,TEMP,265.929948892
IC,1865,TEMP,265.564564521
IC,1866,TEMP,265.570599302
IC,1867,TEMP,267.440859892
IC,1868,TEMP,267.446692866
IC,1869,TEMP,267.913343778
IC,1870,TEMP,267.916740926
IC,1871,TEMP,274.093771093
IC,1872,TEMP,274.014944535
IC,1873,TEMP,281.160124289
IC,1874,TEMP,285.929728789
IC,1875,TEMP,281.034381231
IC,1876,TEMP,281.060803812
IC,1877,TEMP,274.010126925
IC,1878,TEMP,274.010602473
IC,1879,TEMP,270.165681142
IC,1880,TEMP,270.169468022
IC,1881,TEMP,268.661547237
IC,1882,TEMP,268.662478217
IC,1883,TEMP,267.841026785
IC,1884,TEMP,267.840187585
IC,1885,TEMP,267.55031021
IC,1886,TEMP,267.54729672
IC,1887,TEMP,267.065939317
IC,1888,TEMP,267.063929586
IC,1889,TEMP,265.683241449
IC,1890,TEMP,265.678143898
IC,1891,TEMP,265.673604531
IC,1892,TEMP,265.673399121
IC,1893,TEMP,267.352351101
IC,1894,TEMP,267.35647119
IC,1895,TEMP,271.012944995
IC,1896,TEMP,271.025266606
IC,1897,TEMP,272.083415279
IC,1898,TEMP,271.048177191
IC,1899,TEMP,281.100382076
IC,1900,TEMP,282.936407263
IC,1901,TEMP,281.063970898
IC,1902,TEMP,281.051721037
IC,1903,TEMP,274.798425907
IC,1904,TEMP,274.795967904
IC,1905,TEMP,270.193608622
IC,1906,TEMP,270.195517389
IC,1907,TEMP,268.619471306
IC,1908,TEMP,268.619897796
IC,1909,TEMP,267.786738487
IC,1910,TEMP,267.786512814
IC,1911,TEMP,267.481903357
IC,1912,TEMP,267.481171296
IC,1913,TEMP,266.98647089
IC,1914,TEMP,266.985545343
IC,1915,TEMP,265.62948574
IC,1916,TEMP,265.629459721
IC,1917,TEMP,265.711422179
IC,1918,TEMP,265.709925031
IC,1919,TEMP,267.774810294
IC,1920,TEMP,267.77707746
IC,1921,TEMP,271.022152876
IC,1922,TEMP,271.024706058
IC,1923,TEMP,271.034745879
IC,1924,TEMP,271.444147369
IC,1925,TEMP,281.081268506
IC,1926,TEMP,282.534838496
IC,1927,TEMP,281.048581169
IC,1928,TEMP,281.016494872
IC,1929,TEMP,271.016640932
IC,1930,TEMP,270.997130929
IC,1931,TEMP,271.027219766
IC,1932,TEMP,271.29804331
IC,1933,TEMP,281.279733967
IC,1934,TEMP,282.386795839
IC,1935,TEMP,280.503111953
IC,1936,TEMP,279.076168074
IC,1937,TEMP,274.379984579
IC,1938,TEMP,274.554227883
IC,1939,TEMP,267.160266779
IC,1940,TEMP,267.011124673
IC,1941,TEMP,261.630039442
IC,1942,TEMP,261.57229138
IC,1943,TEMP,253.390140111
IC,1944,TEMP,253.320589215
IC,1945,TEMP,251.091876276
IC,1946,TEMP,251.038722611
IC,1947,TEMP,252.207929885
IC,1948,TEMP,252.147692007
IC,1949,TEMP,257.780779915
IC,1950,TEMP,257.731777154
IC,1951,TEMP,261.532870863
IC,1952,TEMP,261.424072832
IC,1953,TEMP,266.456288359
IC,1954,TEMP,266.571283269
IC,1955,TEMP,269.663478144
IC,1956,TEMP,270.641635967
IC,1957,TEMP,270.900830836
IC,1958,TEMP,271.183059862
IC,1959,TEMP,291.054971384
IC,1960,TEMP,289.988695856
IC,1961,TEMP,289.732080986
IC,1962,TEMP,291.22723442
IC,1963,TEMP,289.472472626
IC,1964,TEMP,289.711491312
IC,1965,TEMP,289.853614627
IC,1966,TEMP,289.711337006
IC,1967,TEMP,291.233529953
IC,1968,TEMP,291.40753481
IC,1969,TEMP,294.64545568
IC,1970,TEMP,294.756666133
IC,1971,TEMP,298.054466953
IC,1972,TEMP,298.190868738
IC,1973,TEMP,306.604280762
IC,1974,TEMP,306.725955947
IC,1975,TEMP,308.856525361
IC,1976,TEMP,308.985089922
IC,1977,TEMP,305.61366121
IC,1978,TEMP,305.72439901
IC,1979,TEMP,294.507465346
IC,1980,TEMP,294.633030102
IC,1981,TEMP,289.29922038
IC,1982,TEMP,289.366890927
IC,1983,TEMP,283.360850647
IC,1984,TEMP,283.597220592
IC,1985,TEMP,280.460665562
IC,1986,TEMP,279.67099771
IC,1987,TEMP,279.601403845
IC,1988,TEMP,279.658032244
IC,1989,TEMP,279.600931166
IC,1990,TEMP,279.657084096
IC,1991,TEMP,279.848142648
IC,1992,TEMP,279.982194055
IC,1993,TEMP,289.747460492
IC,1994,TEMP,291.601706708
IC,1995,TEMP,289.719398269
IC,1996,TEMP,289.709293188
IC,1997,TEMP,279.656321075
IC,1998,TEMP,279.653560811
IC,1999,TEMP,279.660746663
IC,2000,TEMP,280.101196016
IC,2001,TEMP,289.805320595
IC,2002,TEMP,294.546554866
IC,2003,TEMP,289.715419145
IC,2004,TEMP,289.718445575
IC,2005,TEMP,279.65404569
IC,2006,TEMP,279.657171713
IC,2007,TEMP,279.672994124
IC,2008,TEMP,280.718880687
IC,2009,TEMP,303.496164898
IC,2010,TEMP,303.638236052
IC,2011,TEMP,282.598478561
IC,2012,TEMP,282.553990183
IC,2013,TEMP,316.639131786
IC,2014,TEMP,317.495467472
IC,2015,TEMP,279.328319839
IC,2016,TEMP,279.332791403
IC,2017,TEMP,279.334718667
IC,2018,TEMP,279.333151956
IC,2019,TEMP,274.417078149
IC,2020,TEMP,274.41490516
IC,2021,TEMP,274.417443961
IC,2022,TEMP,274.418155441
IC,2023,TEMP,285.282542418
IC,2024,TEMP,285.081513895
IC,2025,TEMP,325.447797274
IC,2026,TEMP,326.125256642
IC,2027,TEMP,286.757562322
IC,2028,TEMP,286.590409424
IC,2029,TEMP,334.357059557
IC,2030,TEMP,335.067424819
IC,2031,TEMP,270.094441406
IC,2032,TEMP,269.990815315
IC,2033,TEMP,269.898810974
IC,2034,TEMP,269.992318739
IC,2035,TEMP,269.881354844
IC,2036,TEMP,269.805959582
IC,2037,TEMP,269.845214404
IC,2038,TEMP,269.765245392
IC,2039,TEMP,269.851455573
IC,2040,TEMP,269.76730726
IC,2041,TEMP,287.287871656
IC,2042,TEMP,287.111763813
IC,2043,TEMP,334.860640824
IC,2044,TEMP,335.554248466
IC,2045,TEMP,269.774963344
IC,2046,TEMP,269.85082932
IC,2047,TEMP,269.693556133
IC,2048,TEMP,269.64854589
IC,2049,TEMP,269.640152625
IC,2050,TEMP,286.105960984
IC,2051,TEMP,285.927175927
IC,2052,TEMP,331.626458453
IC,2053,TEMP,332.352021606
IC,2054,TEMP,269.674587103
IC,2055,TEMP,269.742529741
IC,2056,TEMP,269.597171437
IC,2057,TEMP,269.543019955
IC,2058,TEMP,269.520863911
IC,2059,TEMP,284.026903219
IC,2060,TEMP,283.837160447
IC,2061,TEMP,319.33765975
IC,2062,TEMP,320.035734252
IC,2063,TEMP,269.626452245
IC,2064,TEMP,269.690616582
IC,2065,TEMP,269.549052102
IC,2066,TEMP,269.484021947
IC,2067,TEMP,269.453076279
IC,2068,TEMP,279.929260583
IC,2069,TEMP,279.744611598
IC,2070,TEMP,309.42258563
IC,2071,TEMP,310.309254827
IC,2072,TEMP,277.490991185
IC,2073,TEMP,277.265194596
IC,2074,TEMP,295.326832988
IC,2075,TEMP,295.494422888
IC,2076,TEMP,270.44790958
IC,2077,TEMP,270.44852601
IC,2078,TEMP,270.448094001
IC,2079,TEMP,270.443088626
IC,2080,TEMP,265.531300484
IC,2081,TEMP,265.531567086
IC,2082,TEMP,265.529128577
IC,2083,TEMP,265.531736053
IC,2084,TEMP,274.105808989
IC,2085,TEMP,274.029921941
IC,2086,TEMP,281.259671407
IC,2087,TEMP,286.068069356
IC,2088,TEMP,272.05341726
IC,2089,TEMP,271.004632487
IC,2090,TEMP,281.199704999
IC,2091,TEMP,283.03735054
IC,2092,TEMP,281.169137038
IC,2093,TEMP,281.168147188
IC,2094,TEMP,281.172269126
IC,2095,TEMP,281.160416394
IC,2096,TEMP,270.989534654
IC,2097,TEMP,270.986360613
IC,2098,TEMP,270.983553737
IC,2099,TEMP,270.983315546
IC,2100,TEMP,270.991185395
IC,2101,TEMP,271.40142618
IC,2102,TEMP,281.179968746
IC,2103,TEMP,282.629251583
IC,2104,TEMP,281.14793881
IC,2105,TEMP,281.115128693
IC,2106,TEMP,270.972917673
IC,2107,TEMP,270.952852341
IC,2108,TEMP,270.98338357
IC,2109,TEMP,271.253453687
IC,2110,TEMP,281.374482554
IC,2111,TEMP,282.480910127
IC,2112,TEMP,280.595246943
IC,2113,TEMP,279.138583747
IC,2114,TEMP,274.340740772
IC,2115,TEMP,274.518813178
IC,2116,TEMP,266.946947795
IC,2117,TEMP,266.792962354
IC,2118,TEMP,261.256519705
IC,2119,TEMP,261.193924818
IC,2120,TEMP,252.673718867
IC,2121,TEMP,252.595965101
IC,2122,TEMP,250.271394254
IC,2123,TEMP,250.209930614
IC,2124,TEMP,251.500672856
IC,2125,TEMP,251.43306764
IC,2126,TEMP,257.372402575
IC,2127,TEMP,257.318630399
IC,2128,TEMP,261.253725237
IC,2129,TEMP,261.140161572
IC,2130,TEMP,266.311328137
IC,2131,TEMP,266.427866859
IC,2132,TEMP,269.593550117
IC,2133,TEMP,270.593970913
IC,2134,TEMP,270.856325093
IC,2135,TEMP,271.138699647
IC,2136,TEMP,290.835004338
IC,2137,TEMP,289.767338593
IC,2138,TEMP,289.508163625
IC,2139,TEMP,291.005971272
IC,2140,TEMP,289.243707071
IC,2141,TEMP,289.486628149
IC,2142,TEMP,289.586215148
IC,2143,TEMP,289.485945133
IC,2144,TEMP,290.838558393
IC,2145,TEMP,291.007337335
IC,2146,TEMP,293.998667431
IC,2147,TEMP,294.114214055
IC,2148,TEMP,297.181718082
IC,2149,TEMP,297.320487667
IC,2150,TEMP,305.22443163
IC,2151,TEMP,305.352900916
IC,2152,TEMP,307.300424458
IC,2153,TEMP,307.436199386
IC,2154,TEMP,304.216940073
IC,2155,TEMP,304.334546064
IC,2156,TEMP,293.65707441
IC,2157,TEMP,293.784992833
IC,2158,TEMP,288.707742815
IC,2159,TEMP,288.780118893
IC,2160,TEMP,283.066717634
IC,2161,TEMP,283.296190415
IC,2162,TEMP,280.320414895
IC,2163,TEMP,279.584175685
IC,2164,TEMP,279.507857283
IC,2165,TEMP,279.57187833
IC,2166,TEMP,279.514337389
IC,2167,TEMP,279.571376626
IC,2168,TEMP,279.762065916
IC,2169,TEMP,279.89546515
IC,2170,TEMP,289.522844887
IC,2171,TEMP,291.373959629
IC,2172,TEMP,289.490761164
IC,2173,TEMP,289.477188501
IC,2174,TEMP,279.568368085
IC,2175,TEMP,279.564056817
IC,2176,TEMP,279.574672231
IC,2177,TEMP,280.012341512
IC,2178,TEMP,289.580348009
IC,2179,TEMP,294.284904474
IC,2180,TEMP,289.483489169
IC,2181,TEMP,289.463244366
IC,2182,TEMP,279.56444666
IC,2183,TEMP,279.556166635
IC,2184,TEMP,279.586765042
IC,2185,TEMP,280.618348094
IC,2186,TEMP,303.120959446
IC,2187,TEMP,303.266918969
IC,2188,TEMP,282.461352473
IC,2189,TEMP,282.415010346
IC,2190,TEMP,316.07668348
IC,2191,TEMP,316.928956749
IC,2192,TEMP,279.359553146
IC,2193,TEMP,279.348277257
IC,2194,TEMP,279.345162584
IC,2195,TEMP,279.349475422
IC,2196,TEMP,274.42468986
IC,2197,TEMP,274.428856664
IC,2198,TEMP,274.422603032
IC,2199,TEMP,274.42194272
IC,2200,TEMP,285.082913921
IC,2201,TEMP,284.88332775
IC,2202,TEMP,324.714417717
IC,2203,TEMP,325.389077392
IC,2204,TEMP,286.505584366
IC,2205,TEMP,286.339451678
IC,2206,TEMP,333.287206912
IC,2207,TEMP,333.991838293
IC,2208,TEMP,286.934357174
IC,2209,TEMP,286.760226409
IC,2210,TEMP,333.677935198
IC,2211,TEMP,334.366228997
IC,2212,TEMP,285.718219246
IC,2213,TEMP,285.541264731
IC,2214,TEMP,330.546442365
IC,2215,TEMP,331.267005338
IC,2216,TEMP,283.683974662
IC,2217,TEMP,283.495951317
IC,2218,TEMP,318.643526911
IC,2219,TEMP,319.339392122
IC,2220,TEMP,279.742705227
IC,2221,TEMP,279.558817374
IC,2222,TEMP,308.927051784
IC,2223,TEMP,309.809997514
IC,2224,TEMP,277.378812068
IC,2225,TEMP,277.154257707
IC,2226,TEMP,295.049639043
IC,2227,TEMP,295.221609696
IC,2228,TEMP,270.437040224
IC,2229,TEMP,270.431742922
IC,2230,TEMP,270.431963489
IC,2231,TEMP,270.445942926
IC,2232,TEMP,265.507522002
IC,2233,TEMP,265.509203795
IC,2234,TEMP,265.514154898
IC,2235,TEMP,265.507378751
IC,2236,TEMP,274.078866694
IC,2237,TEMP,274.001351373
IC,2238,TEMP,281.149138415
IC,2239,TEMP,285.918634022
IC,2240,TEMP,272.07128874
IC,2241,TEMP,271.036921342
IC,2242,TEMP,281.089465219
IC,2243,TEMP,282.925444761
IC,2244,TEMP,281.050797888
IC,2245,TEMP,281.053529567
IC,2246,TEMP,281.028152873
IC,2247,TEMP,281.041759857
IC,2248,TEMP,271.004026761
IC,2249,TEMP,271.014479841
IC,2250,TEMP,271.013705743
IC,2251,TEMP,271.011383881
IC,2252,TEMP,271.023531496
IC,2253,TEMP,271.432813625
IC,2254,TEMP,281.070373954
IC,2255,TEMP,282.523996315
IC,2256,TEMP,281.037715312
IC,2257,TEMP,281.005555089
IC,2258,TEMP,271.005439807
IC,2259,TEMP,270.985898409
IC,2260,TEMP,271.01602553
IC,2261,TEMP,271.28693647
IC,2262,TEMP,281.268925937
IC,2263,TEMP,282.376040869
IC,2264,TEMP,280.492038495
IC,2265,TEMP,279.06343129
IC,2266,TEMP,274.362156647
IC,2267,TEMP,274.536001854
IC,2268,TEMP,267.133958309
IC,2269,TEMP,266.982136975
IC,2270,TEMP,261.593161777
IC,2271,TEMP,261.531866982
IC,2272,TEMP,253.323078218
IC,2273,TEMP,253.24831802
IC,2274,TEMP,251.018253269
IC,2275,TEMP,250.959084861
IC,2276,TEMP,252.137911349
IC,2277,TEMP,252.072879619
IC,2278,TEMP,257.743122671
IC,2279,TEMP,257.690205106
IC,2280,TEMP,261.506530578
IC,2281,TEMP,261.394633614
IC,2282,TEMP,266.44034224
IC,2283,TEMP,266.553510851
IC,2284,TEMP,269.65073002
IC,2285,TEMP,270.630246476
IC,2286,TEMP,270.889732157
IC,2287,TEMP,271.172022209
IC,2288,TEMP,290.754576966
IC,2289,TEMP,289.685796526
IC,2290,TEMP,289.422121242
IC,2291,TEMP,290.924774739
IC,2292,TEMP,289.157812163
IC,2293,TEMP,289.399105043
IC,2294,TEMP,289.484042105
IC,2295,TEMP,289.397509799
IC,2296,TEMP,290.685474192
IC,2297,TEMP,290.841643076
IC,2298,TEMP,293.748270255
IC,2299,TEMP,293.849915851
IC,2300,TEMP,296.839849267
IC,2301,TEMP,296.960103504
IC,2302,TEMP,304.682341553
IC,2303,TEMP,304.783144212
IC,2304,TEMP,306.68328928
IC,2305,TEMP,306.789402249
IC,2306,TEMP,303.66577675
IC,2307,TEMP,303.756877628
IC,2308,TEMP,293.32473252
IC,2309,TEMP,293.436973118
IC,2310,TEMP,288.479506489
IC,2311,TEMP,288.540694949
IC,2312,TEMP,282.955394071
IC,2313,TEMP,283.175829473
IC,2314,TEMP,280.271855069
IC,2315,TEMP,279.552118638
IC,2316,TEMP,279.477691182
IC,2317,TEMP,279.540188334
IC,2318,TEMP,279.487379419
IC,2319,TEMP,279.539671266
IC,2320,TEMP,279.735109013
IC,2321,TEMP,279.868326909
IC,2322,TEMP,289.43636316
IC,2323,TEMP,291.288927201
IC,2324,TEMP,289.403948029
IC,2325,TEMP,289.390955739
IC,2326,TEMP,279.536487356
IC,2327,TEMP,279.532706082
IC,2328,TEMP,279.542156084
IC,2329,TEMP,279.982789324
IC,2330,TEMP,289.493269107
IC,2331,TEMP,294.178922164
IC,2332,TEMP,289.397561945
IC,2333,TEMP,289.384277364
IC,2334,TEMP,283.873602438
IC,2335,TEMP,283.055944456
IC,2336,TEMP,283.877379811
IC,2337,TEMP,283.05722789
IC,2338,TEMP,279.641215167
IC,2339,TEMP,279.494698182
IC,2340,TEMP,279.631631623
IC,2341,TEMP,279.482828288
IC,2342,TEMP,278.177855493
IC,2343,TEMP,278.080854345
IC,2344,TEMP,278.167578805
IC,2345,TEMP,278.070252188
IC,2346,TEMP,276.7398291
IC,2347,TEMP,276.593035658
IC,2348,TEMP,276.726936091
IC,2349,TEMP,276.579302468
IC,2350,TEMP,276.303867191
IC,2351,TEMP,276.152240493
IC,2352,TEMP,276.290423298
IC,2353,TEMP,276.138130557
IC,2354,TEMP,275.588769512
IC,2355,TEMP,275.451821964
IC,2356,TEMP,275.577205251
IC,2357,TEMP,275.439692192
IC,2358,TEMP,274.882465091
IC,2359,TEMP,274.778000667
IC,2360,TEMP,274.873736273
IC,2361,TEMP,274.768907247
IC,2362,TEMP,275.03446639
IC,2363,TEMP,274.889056269
IC,2364,TEMP,275.027920257
IC,2365,TEMP,274.880367779
IC,2366,TEMP,276.8779874
IC,2367,TEMP,276.420547303
IC,2368,TEMP,276.877343359
IC,2369,TEMP,276.418089006
IC,2370,TEMP,279.528324402
IC,2371,TEMP,279.532840305
IC,2372,TEMP,279.553843571
IC,2373,TEMP,280.582218537
IC,2374,TEMP,302.943090257
IC,2375,TEMP,303.095055957
IC,2376,TEMP,283.162639117
IC,2377,TEMP,284.04473984
IC,2378,TEMP,283.16169113
IC,2379,TEMP,284.047468034
IC,2380,TEMP,279.357997206
IC,2381,TEMP,279.35141399
IC,2382,TEMP,277.824199272
IC,2383,TEMP,277.810523154
IC,2384,TEMP,276.241096551
IC,2385,TEMP,276.226694978
IC,2386,TEMP,275.78734603
IC,2387,TEMP,275.772081592
IC,2388,TEMP,275.103907261
IC,2389,TEMP,275.091576825
IC,2390,TEMP,274.535356092
IC,2391,TEMP,274.52421594
IC,2392,TEMP,274.42500328
IC,2393,TEMP,274.427012005
IC,2394,TEMP,276.328775029
IC,2395,TEMP,276.327831875
IC,2396,TEMP,276.741007789
IC,2397,TEMP,276.741410511
IC,2398,TEMP,282.405765828
IC,2399,TEMP,282.356466984
IC,2400,TEMP,315.798580456
IC,2401,TEMP,316.657907139
IC,2402,TEMP,279.725381519
IC,2403,TEMP,279.964964146
IC,2404,TEMP,279.709261988
IC,2405,TEMP,279.953178443
IC,2406,TEMP,279.352321134
IC,2407,TEMP,279.349812057
IC,2408,TEMP,277.030638386
IC,2409,TEMP,277.014844909
IC,2410,TEMP,275.417940619
IC,2411,TEMP,275.403999658
IC,2412,TEMP,274.897979969
IC,2413,TEMP,274.882919316
IC,2414,TEMP,274.275884697
IC,2415,TEMP,274.263102024
IC,2416,TEMP,273.814456952
IC,2417,TEMP,273.802526257
IC,2418,TEMP,274.423539627
IC,2419,TEMP,274.42352305
IC,2420,TEMP,274.339555639
IC,2421,TEMP,274.333972114
IC,2422,TEMP,274.397929714
IC,2423,TEMP,274.393502095
IC,2424,TEMP,284.995529383
IC,2425,TEMP,284.793003592
IC,2426,TEMP,324.362417237
IC,2427,TEMP,325.051091965
IC,2428,TEMP,278.28622428
IC,2429,TEMP,278.493894589
IC,2430,TEMP,278.27136658
IC,2431,TEMP,278.479937462
IC,2432,TEMP,277.898281969
IC,2433,TEMP,277.879021688
IC,2434,TEMP,276.987180779
IC,2435,TEMP,276.967350013
IC,2436,TEMP,275.950489088
IC,2437,TEMP,275.936119634
IC,2438,TEMP,274.403563607
IC,2439,TEMP,274.390054668
IC,2440,TEMP,273.797249905
IC,2441,TEMP,273.78482235
IC,2442,TEMP,273.234309096
IC,2443,TEMP,273.223136148
IC,2444,TEMP,272.882508989
IC,2445,TEMP,272.872721363
IC,2446,TEMP,272.982615762
IC,2447,TEMP,272.973326406
IC,2448,TEMP,273.103754264
IC,2449,TEMP,273.095885462
IC,2450,TEMP,273.1743868
IC,2451,TEMP,273.168436319
IC,2452,TEMP,273.212147962
IC,2453,TEMP,273.206541015
IC,2454,TEMP,286.395105884
IC,2455,TEMP,286.223914332
IC,2456,TEMP,332.734097996
IC,2457,TEMP,333.460864831
IC,2458,TEMP,275.091691886
IC,2459,TEMP,275.368442975
IC,2460,TEMP,275.072196686
IC,2461,TEMP,275.349809429
IC,2462,TEMP,274.592405238
IC,2463,TEMP,274.571630452
IC,2464,TEMP,273.690993592
IC,2465,TEMP,273.670243182
IC,2466,TEMP,272.761538256
IC,2467,TEMP,272.744479989
IC,2468,TEMP,271.368422667
IC,2469,TEMP,271.354708201
IC,2470,TEMP,270.633102023
IC,2471,TEMP,270.621841621
IC,2472,TEMP,270.219288338
IC,2473,TEMP,270.209193569
IC,2474,TEMP,270.071709307
IC,2475,TEMP,270.0621118
IC,2476,TEMP,270.163762792
IC,2477,TEMP,270.154469077
IC,2478,TEMP,270.301389696
IC,2479,TEMP,270.292962534
IC,2480,TEMP,270.400356419
IC,2481,TEMP,270.392514649
IC,2482,TEMP,270.467469254
IC,2483,TEMP,270.460193585
IC,2484,TEMP,286.769770572
IC,2485,TEMP,286.588545596
IC,2486,TEMP,333.080367947
IC,2487,TEMP,333.793106051
IC,2488,TEMP,272.637420727
IC,2489,TEMP,272.924781623
IC,2490,TEMP,272.615326226
IC,2491,TEMP,272.903648208
IC,2492,TEMP,272.126104613
IC,2493,TEMP,272.101356889
IC,2494,TEMP,271.159611968
IC,2495,TEMP,271.134743563
IC,2496,TEMP,270.144413119
IC,2497,TEMP,270.124649643
IC,2498,TEMP,268.60074717
IC,2499,TEMP,268.585908995
IC,2500,TEMP,267.807931264
IC,2501,TEMP,267.796149015
IC,2502,TEMP,267.479323918
IC,2503,TEMP,267.468047768
IC,2504,TEMP,267.522741943
IC,2505,TEMP,267.512416048
IC,2506,TEMP,267.697993221
IC,2507,TEMP,267.686905422
IC,2508,TEMP,267.888501606
IC,2509,TEMP,267.878393086
IC,2510,TEMP,268.001095697
IC,2511,TEMP,267.992087992
IC,2512,TEMP,268.069209794
IC,2513,TEMP,268.060611977
IC,2514,TEMP,285.543815649
IC,2515,TEMP,285.359106098
IC,2516,TEMP,329.996552583
IC,2517,TEMP,330.738079713
IC,2518,TEMP,270.495653013
IC,2519,TEMP,270.776470452
IC,2520,TEMP,270.475189693
IC,2521,TEMP,270.75762561
IC,2522,TEMP,269.966455321
IC,2523,TEMP,269.944933155
IC,2524,TEMP,268.987087397
IC,2525,TEMP,268.965318667
IC,2526,TEMP,267.951154093
IC,2527,TEMP,267.933035433
IC,2528,TEMP,266.280014341
IC,2529,TEMP,266.266209996
IC,2530,TEMP,265.442179108
IC,2531,TEMP,265.430194134
IC,2532,TEMP,265.151871348
IC,2533,TEMP,265.140158705
IC,2534,TEMP,265.304428292
IC,2535,TEMP,265.29385401
IC,2536,TEMP,265.509995479
IC,2537,TEMP,265.499873734
IC,2538,TEMP,265.731989196
IC,2539,TEMP,265.722795232
IC,2540,TEMP,265.864358185
IC,2541,TEMP,265.855907232
IC,2542,TEMP,265.938362495
IC,2543,TEMP,265.930405589
IC,2544,TEMP,283.530906515
IC,2545,TEMP,283.336121928
IC,2546,TEMP,318.310089754
IC,2547,TEMP,319.01812173
IC,2548,TEMP,270.037662028
IC,2549,TEMP,270.268604993
IC,2550,TEMP,270.02226151
IC,2551,TEMP,270.253574887
IC,2552,TEMP,269.587596372
IC,2553,TEMP,269.568098437
IC,2554,TEMP,268.413948291
IC,2555,TEMP,268.393754528
IC,2556,TEMP,266.972175195
IC,2557,TEMP,266.958020485
IC,2558,TEMP,264.545095946
IC,2559,TEMP,264.533384872
IC,2560,TEMP,263.647426882
IC,2561,TEMP,263.637194567
IC,2562,TEMP,263.416426829
IC,2563,TEMP,263.406527321
IC,2564,TEMP,263.938284499
IC,2565,TEMP,263.929415486
IC,2566,TEMP,264.438205068
IC,2567,TEMP,264.428499887
IC,2568,TEMP,264.827434733
IC,2569,TEMP,264.818462238
IC,2570,TEMP,264.963837996
IC,2571,TEMP,264.957009323
IC,2572,TEMP,265.027522576
IC,2573,TEMP,265.021091048
IC,2574,TEMP,279.660625523
IC,2575,TEMP,279.472678129
IC,2576,TEMP,308.676381135
IC,2577,TEMP,309.564641886
IC,2578,TEMP,270.860081812
IC,2579,TEMP,271.096511521
IC,2580,TEMP,270.84546641
IC,2581,TEMP,271.086225071
IC,2582,TEMP,270.440047748
IC,2583,TEMP,270.436408788
IC,2584,TEMP,267.039752227
IC,2585,TEMP,267.027980312
IC,2586,TEMP,264.071127243
IC,2587,TEMP,264.062032056
IC,2588,TEMP,263.200160215
IC,2589,TEMP,263.191902295
IC,2590,TEMP,262.976241514
IC,2591,TEMP,262.969588579
IC,2592,TEMP,263.854790134
IC,2593,TEMP,263.84768065
IC,2594,TEMP,265.508972527
IC,2595,TEMP,265.510112915
IC,2596,TEMP,265.490679279
IC,2597,TEMP,265.485884101
IC,2598,TEMP,265.550755851
IC,2599,TEMP,265.547585447
IC,2600,TEMP,277.325889637
IC,2601,TEMP,277.098989701
IC,2602,TEMP,294.910014697
IC,2603,TEMP,295.086371765
IC,2604,TEMP,274.197729851
IC,2605,TEMP,275.124810732
IC,2606,TEMP,274.192374455
IC,2607,TEMP,275.122504613
IC,2608,TEMP,270.444786828
IC,2609,TEMP,270.436360295
IC,2610,TEMP,267.033732531
IC,2611,TEMP,267.025296877
IC,2612,TEMP,263.774497244
IC,2613,TEMP,263.767157474
IC,2614,TEMP,262.890397207
IC,2615,TEMP,262.883460477
IC,2616,TEMP,262.694243254
IC,2617,TEMP,262.688262678
IC,2618,TEMP,263.780252004
IC,2619,TEMP,263.774337297
IC,2620,TEMP,265.50879615
IC,2621,TEMP,265.512591528
IC,2622,TEMP,267.329014601
IC,2623,TEMP,267.322868087
IC,2624,TEMP,267.779386894
IC,2625,TEMP,267.774015069
IC,2626,TEMP,274.064566976
IC,2627,TEMP,273.984977553
IC,2628,TEMP,281.110413945
IC,2629,TEMP,285.854921636
IC,2630,TEMP,280.998241357
IC,2631,TEMP,281.013133601
IC,2632,TEMP,273.902402371
IC,2633,TEMP,273.901696211
IC,2634,TEMP,269.617711707
IC,2635,TEMP,269.61251602
IC,2636,TEMP,267.013473488
IC,2637,TEMP,267.007795944
IC,2638,TEMP,263.688182552
IC,2639,TEMP,263.681804212
IC,2640,TEMP,262.78877209
IC,2641,TEMP,262.783265472
IC,2642,TEMP,262.607257087
IC,2643,TEMP,262.602045505
IC,2644,TEMP,263.748690677
IC,2645,TEMP,263.744320674
IC,2646,TEMP,265.02371984
IC,2647,TEMP,265.021922395
IC,2648,TEMP,267.229169368
IC,2649,TEMP,267.224505083
IC,2650,TEMP,271.026771739
IC,2651,TEMP,271.032751492
IC,2652,TEMP,272.079942976
IC,2653,TEMP,271.053995344
IC,2654,TEMP,281.051039471
IC,2655,TEMP,282.883543142
IC,2656,TEMP,281.014624901
IC,2657,TEMP,281.003405654
IC,2658,TEMP,274.666313308
IC,2659,TEMP,274.667403154
IC,2660,TEMP,269.579812543
IC,2661,TEMP,269.575616948
IC,2662,TEMP,266.98097434
IC,2663,TEMP,266.975764386
IC,2664,TEMP,263.680493724
IC,2665,TEMP,263.674337048
IC,2666,TEMP,262.759542354
IC,2667,TEMP,262.754417049
IC,2668,TEMP,262.590411009
IC,2669,TEMP,262.5861618
IC,2670,TEMP,263.72497152
IC,2671,TEMP,263.720997709
IC,2672,TEMP,264.988096625
IC,2673,TEMP,264.986718592
IC,2674,TEMP,267.624972138
IC,2675,TEMP,267.620644808
IC,2676,TEMP,271.029529921
IC,2677,TEMP,271.031358547
IC,2678,TEMP,271.040697002
IC,2679,TEMP,271.448261958
IC,2680,TEMP,281.031199242
IC,2681,TEMP,282.483877719
IC,2682,TEMP,280.997035768
IC,2683,TEMP,280.964346379
IC,2684,TEMP,271.022218573
IC,2685,TEMP,271.002706023
IC,2686,TEMP,271.032798811
IC,2687,TEMP,271.302676644
IC,2688,TEMP,281.228115838
IC,2689,TEMP,282.336210377
IC,2690,TEMP,280.451483942
IC,2691,TEMP,279.034470712
IC,2692,TEMP,274.374657098
IC,2693,TEMP,274.550944298
IC,2694,TEMP,267.225078629
IC,2695,TEMP,267.075315926
IC,2696,TEMP,261.745674563
IC,2697,TEMP,261.686205699
IC,2698,TEMP,253.633520762
IC,2699,TEMP,253.556411293
IC,2700,TEMP,251.369298212
IC,2701,TEMP,251.306699439
IC,2702,TEMP,252.441515842
IC,2703,TEMP,252.373743502
IC,2704,TEMP,257.911434321
IC,2705,TEMP,257.858516312
IC,2706,TEMP,261.624785632
IC,2707,TEMP,261.513583931
IC,2708,TEMP,266.499314664
IC,2709,TEMP,266.612737483
IC,2710,TEMP,269.677350232
IC,2711,TEMP,270.647234573
IC,2712,TEMP,270.905304585
IC,2713,TEMP,271.18756063
IC,2714,TEMP,289.684435376
IC,2715,TEMP,288.612182656
IC,2716,TEMP,288.34843399
IC,2717,TEMP,289.849650682
IC,2718,TEMP,288.0540643
IC,2719,TEMP,288.329781221
IC,2720,TEMP,288.145948331
IC,2721,TEMP,288.326318972
IC,2722,TEMP,288.557686461
IC,2723,TEMP,288.681141067
IC,2724,TEMP,290.069943346
IC,2725,TEMP,290.194710736
IC,2726,TEMP,291.787898041
IC,2727,TEMP,291.916150607
IC,2728,TEMP,296.418087788
IC,2729,TEMP,296.54469305
IC,2730,TEMP,297.317363476
IC,2731,TEMP,297.446506449
IC,2732,TEMP,295.106309729
IC,2733,TEMP,295.222912306
IC,2734,TEMP,288.109207874
IC,2735,TEMP,288.227058936
IC,2736,TEMP,284.876344509
IC,2737,TEMP,284.961353406
IC,2738,TEMP,281.238818322
IC,2739,TEMP,281.411842828
IC,2740,TEMP,279.53546415
IC,2741,TEMP,279.162512704
IC,2742,TEMP,279.040939878
IC,2743,TEMP,279.156210854
IC,2744,TEMP,279.093673464
IC,2745,TEMP,279.158534974
IC,2746,TEMP,279.343025802
IC,2747,TEMP,279.475522452
IC,2748,TEMP,288.36168735
IC,2749,TEMP,290.167492764
IC,2750,TEMP,288.336226046
IC,2751,TEMP,288.326287819
IC,2752,TEMP,279.157265798
IC,2753,TEMP,279.153652443
IC,2754,TEMP,279.16406022
IC,2755,TEMP,279.583740584
IC,2756,TEMP,288.413458582
IC,2757,TEMP,292.748960871
IC,2758,TEMP,288.331068038
IC,2759,TEMP,288.321146202
IC,2760,TEMP,279.155584392
IC,2761,TEMP,279.150865105
IC,2762,TEMP,279.175454389
IC,2763,TEMP,280.099527944
IC,2764,TEMP,300.397214104
IC,2765,TEMP,300.619927132
IC,2766,TEMP,281.637848017
IC,2767,TEMP,281.569022735
IC,2768,TEMP,311.133177723
IC,2769,TEMP,311.994435764
IC,2770,TEMP,279.380157785
IC,2771,TEMP,279.372589858
IC,2772,TEMP,279.368907393
IC,2773,TEMP,279.373277619
IC,2774,TEMP,274.423740447
IC,2775,TEMP,274.427561423
IC,2776,TEMP,274.422872228
IC,2777,TEMP,274.42074883
IC,2778,TEMP,283.666003984
IC,2779,TEMP,283.463707768
IC,2780,TEMP,317.741856658
IC,2781,TEMP,318.450074567
IC,2782,TEMP,284.590274512
IC,2783,TEMP,284.414636738
IC,2784,TEMP,323.551328854
IC,2785,TEMP,324.283220171
IC,2786,TEMP,284.354235404
IC,2787,TEMP,284.171987296
IC,2788,TEMP,323.325242006
IC,2789,TEMP,324.046735978
IC,2790,TEMP,283.016573033
IC,2791,TEMP,282.830395768
IC,2792,TEMP,320.834217126
IC,2793,TEMP,321.581132234
IC,2794,TEMP,281.271738132
IC,2795,TEMP,281.076388305
IC,2796,TEMP,311.953031963
IC,2797,TEMP,312.681345034
IC,2798,TEMP,278.297069555
IC,2799,TEMP,278.104582236
IC,2800,TEMP,304.391896868
IC,2801,TEMP,305.281948599
IC,2802,TEMP,276.517258868
IC,2803,TEMP,276.291173196
IC,2804,TEMP,292.872386169
IC,2805,TEMP,293.122169789
IC,2806,TEMP,270.501976575
IC,2807,TEMP,270.49737195
IC,2808,TEMP,270.499584996
IC,2809,TEMP,270.508388012
IC,2810,TEMP,265.546235018
IC,2811,TEMP,265.548615654
IC,2812,TEMP,265.552797269
IC,2813,TEMP,265.547766115
IC,2814,TEMP,273.882052937
IC,2815,TEMP,273.782856203
IC,2816,TEMP,280.621559607
IC,2817,TEMP,285.000814484
IC,2818,TEMP,272.20787473
IC,2819,TEMP,271.286670448
IC,2820,TEMP,280.569722646
IC,2821,TEMP,282.361525702
IC,2822,TEMP,280.539590815
IC,2823,TEMP,280.542769445
IC,2824,TEMP,280.528225537
IC,2825,TEMP,280.5346819
IC,2826,TEMP,271.262096499
IC,2827,TEMP,271.268171306
IC,2828,TEMP,271.267772586
IC,2829,TEMP,271.266133369
IC,2830,TEMP,271.275858499
IC,2831,TEMP,271.67096123
IC,2832,TEMP,280.556812771
IC,2833,TEMP,282.019842852
IC,2834,TEMP,280.531419716
IC,2835,TEMP,280.505445875
IC,2836,TEMP,271.26177546
IC,2837,TEMP,271.245281406
IC,2838,TEMP,271.270842501
IC,2839,TEMP,271.541827397
IC,2840,TEMP,280.767122928
IC,2841,TEMP,281.875469003
IC,2842,TEMP,280.027352747
IC,2843,TEMP,278.831252925
IC,2844,TEMP,274.927023187
IC,2845,TEMP,275.059483492
IC,2846,TEMP,269.138587186
IC,2847,TEMP,268.995410229
IC,2848,TEMP,264.908781783
IC,2849,TEMP,264.843450807
IC,2850,TEMP,258.795158273
IC,2851,TEMP,258.722548036
IC,2852,TEMP,256.918165893
IC,2853,TEMP,256.85825897
IC,2854,TEMP,257.327553905
IC,2855,TEMP,257.263355742
IC,2856,TEMP,260.971221952
IC,2857,TEMP,260.914084443
IC,2858,TEMP,263.67562998
IC,2859,TEMP,263.569176016
IC,2860,TEMP,267.490098381
IC,2861,TEMP,267.572869842
IC,2862,TEMP,270.101652426
IC,2863,TEMP,270.911211964
IC,2864,TEMP,271.145061482
IC,2865,TEMP,271.426248132
IC,2866,TEMP,289.481415049
IC,2867,TEMP,288.408558736
IC,2868,TEMP,288.137321209
IC,2869,TEMP,289.645777087
IC,2870,TEMP,287.851163242
IC,2871,TEMP,288.129693254
IC,2872,TEMP,287.905928977
IC,2873,TEMP,288.16177621
IC,2874,TEMP,288.196005165
IC,2875,TEMP,288.250739995
IC,2876,TEMP,289.507035464
IC,2877,TEMP,289.583675606
IC,2878,TEMP,290.994887139
IC,2879,TEMP,291.086538717
IC,2880,TEMP,295.02345148
IC,2881,TEMP,295.168815177
IC,2882,TEMP,295.667608223
IC,2883,TEMP,295.843278964
IC,2884,TEMP,293.605450146
IC,2885,TEMP,293.765209972
IC,2886,TEMP,287.224277244
IC,2887,TEMP,287.346569925
IC,2888,TEMP,284.288742801
IC,2889,TEMP,284.357943563
IC,2890,TEMP,280.947873336
IC,2891,TEMP,281.087067065
IC,2892,TEMP,279.407481721
IC,2893,TEMP,279.081134161
IC,2894,TEMP,278.963970796
IC,2895,TEMP,279.081812307
IC,2896,TEMP,279.028139277
IC,2897,TEMP,279.087292297
IC,2898,TEMP,279.278798265
IC,2899,TEMP,279.411101469
IC,2900,TEMP,288.150800288
IC,2901,TEMP,289.93901771
IC,2902,TEMP,288.135578857
IC,2903,TEMP,288.161475796
IC,2904,TEMP,279.08893048
IC,2905,TEMP,279.078213644
IC,2906,TEMP,279.099085609
IC,2907,TEMP,279.517715425
IC,2908,TEMP,288.209860464
IC,2909,TEMP,292.422942689
IC,2910,TEMP,288.136115396
IC,2911,TEMP,288.148082646
IC,2912,TEMP,283.146469645
IC,2913,TEMP,282.469798234
IC,2914,TEMP,283.157503426
IC,2915,TEMP,282.476411892
IC,2916,TEMP,278.823290371
IC,2917,TEMP,278.800075661
IC,2918,TEMP,278.807228664
IC,2919,TEMP,278.780499626
IC,2920,TEMP,276.28716655
IC,2921,TEMP,276.214217956
IC,2922,TEMP,276.273865932
IC,2923,TEMP,276.201348048
IC,2924,TEMP,272.269885005
IC,2925,TEMP,272.124627247
IC,2926,TEMP,272.251736554
IC,2927,TEMP,272.1063895
IC,2928,TEMP,271.139225652
IC,2929,TEMP,271.007432604
IC,2930,TEMP,271.118597678
IC,2931,TEMP,270.987238746
IC,2932,TEMP,271.21804682
IC,2933,TEMP,271.086353743
IC,2934,TEMP,271.200247842
IC,2935,TEMP,271.068853671
IC,2936,TEMP,273.086231117
IC,2937,TEMP,273.007836528
IC,2938,TEMP,273.073105813
IC,2939,TEMP,272.995363584
IC,2940,TEMP,274.30379897
IC,2941,TEMP,274.259824876
IC,2942,TEMP,274.292574572
IC,2943,TEMP,274.246235208
IC,2944,TEMP,276.511490167
IC,2945,TEMP,276.13002452
IC,2946,TEMP,276.514959905
IC,2947,TEMP,276.128686192
IC,2948,TEMP,279.089740564
IC,2949,TEMP,279.106913694
IC,2950,TEMP,279.129814146
IC,2951,TEMP,280.010917796
IC,2952,TEMP,300.137893416
IC,2953,TEMP,299.866978494
IC,2954,TEMP,282.549546299
IC,2955,TEMP,283.275243655
IC,2956,TEMP,282.549650004
IC,2957,TEMP,283.284799665
IC,2958,TEMP,279.391627917
IC,2959,TEMP,279.380324963
IC,2960,TEMP,275.919408746
IC,2961,TEMP,275.903767056
IC,2962,TEMP,271.767404837
IC,2963,TEMP,271.751405885
IC,2964,TEMP,270.678188138
IC,2965,TEMP,270.659438478
IC,2966,TEMP,270.747191199
IC,2967,TEMP,270.732088716
IC,2968,TEMP,272.746528677
IC,2969,TEMP,272.733061116
IC,2970,TEMP,274.427137546
IC,2971,TEMP,274.432408903
IC,2972,TEMP,276.066722635
IC,2973,TEMP,276.067317549
IC,2974,TEMP,276.417682315
IC,2975,TEMP,276.418729186
IC,2976,TEMP,281.442582255
IC,2977,TEMP,281.486714113
IC,2978,TEMP,310.002727019
IC,2979,TEMP,310.28194581
IC,2980,TEMP,278.970494604
IC,2981,TEMP,279.064624937
IC,2982,TEMP,278.937517977
IC,2983,TEMP,279.037061276
IC,2984,TEMP,279.381156868
IC,2985,TEMP,279.37360796
IC,2986,TEMP,274.826499706
IC,2987,TEMP,274.810141507
IC,2988,TEMP,270.929652482
IC,2989,TEMP,270.914458876
IC,2990,TEMP,269.862158581
IC,2991,TEMP,269.845042755
IC,2992,TEMP,269.93626234
IC,2993,TEMP,269.922403018
IC,2994,TEMP,271.821183016
IC,2995,TEMP,271.808572993
IC,2996,TEMP,274.421766699
IC,2997,TEMP,274.42551955
IC,2998,TEMP,273.867544676
IC,2999,TEMP,273.8575473
IC,3000,TEMP,273.850996604
IC,3001,TEMP,273.843295143
IC,3002,TEMP,283.237785246
IC,3003,TEMP,283.171002954
IC,3004,TEMP,316.022273821
IC,3005,TEMP,316.078729235
IC,3006,TEMP,276.345601942
IC,3007,TEMP,276.502377241
IC,3008,TEMP,276.318975716
IC,3009,TEMP,276.475250116
IC,3010,TEMP,275.949796386
IC,3011,TEMP,275.922173252
IC,3012,TEMP,274.774030391
IC,3013,TEMP,274.750772505
IC,3014,TEMP,273.142561431
IC,3015,TEMP,273.12680787
IC,3016,TEMP,269.90678613
IC,3017,TEMP,269.890263935
IC,3018,TEMP,268.833371855
IC,3019,TEMP,268.816557936
IC,3020,TEMP,268.927576748
IC,3021,TEMP,268.913670184
IC,3022,TEMP,270.443958342
IC,3023,TEMP,270.433299446
IC,3024,TEMP,271.217050847
IC,3025,TEMP,271.207015664
IC,3026,TEMP,271.712384748
IC,3027,TEMP,271.702796653
IC,3028,TEMP,271.852019987
IC,3029,TEMP,271.843972958
IC,3030,TEMP,271.88584747
IC,3031,TEMP,271.877356328
IC,3032,TEMP,284.008905379
IC,3033,TEMP,283.982701761
IC,3034,TEMP,321.066011091
IC,3035,TEMP,321.088983045
IC,3036,TEMP,270.923576336
IC,3037,TEMP,271.168709449
IC,3038,TEMP,270.890534633
IC,3039,TEMP,271.135371986
IC,3040,TEMP,270.448194612
IC,3041,TEMP,270.421013733
IC,3042,TEMP,269.543656574
IC,3043,TEMP,269.520883981
IC,3044,TEMP,268.595065928
IC,3045,TEMP,268.576022756
IC,3046,TEMP,266.789296194
IC,3047,TEMP,266.771678728
IC,3048,TEMP,265.896902446
IC,3049,TEMP,265.87945383
IC,3050,TEMP,265.926831541
IC,3051,TEMP,265.912204911
IC,3052,TEMP,266.563090038
IC,3053,TEMP,266.551831382
IC,3054,TEMP,266.877845589
IC,3055,TEMP,266.868443387
IC,3056,TEMP,267.185367663
IC,3057,TEMP,267.176412686
IC,3058,TEMP,267.344979971
IC,3059,TEMP,267.335273407
IC,3060,TEMP,267.429024033
IC,3061,TEMP,267.41926604
IC,3062,TEMP,283.598560748
IC,3063,TEMP,283.569243864
IC,3064,TEMP,320.754969234
IC,3065,TEMP,320.768754135
IC,3066,TEMP,268.078431437
IC,3067,TEMP,268.315999168
IC,3068,TEMP,268.043905626
IC,3069,TEMP,268.280326826
IC,3070,TEMP,267.626009229
IC,3071,TEMP,267.596538104
IC,3072,TEMP,266.739469823
IC,3073,TEMP,266.715355885
IC,3074,TEMP,265.787381471
IC,3075,TEMP,265.76885534
IC,3076,TEMP,264.159235851
IC,3077,TEMP,264.142061203
IC,3078,TEMP,263.368246027
IC,3079,TEMP,263.351308778
IC,3080,TEMP,263.364054598
IC,3081,TEMP,263.350191275
IC,3082,TEMP,263.912824586
IC,3083,TEMP,263.902698856
IC,3084,TEMP,264.238440494
IC,3085,TEMP,264.229528227
IC,3086,TEMP,264.531531927
IC,3087,TEMP,264.522793999
IC,3088,TEMP,264.676363542
IC,3089,TEMP,264.667385088
IC,3090,TEMP,264.750878585
IC,3091,TEMP,264.741666526
IC,3092,TEMP,282.264017122
IC,3093,TEMP,282.224437318
IC,3094,TEMP,318.369820648
IC,3095,TEMP,318.415215692
IC,3096,TEMP,266.695487471
IC,3097,TEMP,266.940361501
IC,3098,TEMP,266.665180621
IC,3099,TEMP,266.909344416
IC,3100,TEMP,266.210609307
IC,3101,TEMP,266.187336375
IC,3102,TEMP,265.287183465
IC,3103,TEMP,265.268519959
IC,3104,TEMP,264.313503531
IC,3105,TEMP,264.300554332
IC,3106,TEMP,262.495668244
IC,3107,TEMP,262.484071727
IC,3108,TEMP,261.611356667
IC,3109,TEMP,261.600011158
IC,3110,TEMP,261.651044811
IC,3111,TEMP,261.642668695
IC,3112,TEMP,262.326732425
IC,3113,TEMP,262.320692527
IC,3114,TEMP,262.669609448
IC,3115,TEMP,262.664748732
IC,3116,TEMP,263.000024001
IC,3117,TEMP,262.995052356
IC,3118,TEMP,263.171900209
IC,3119,TEMP,263.165461897
IC,3120,TEMP,263.257973745
IC,3121,TEMP,263.251434102
IC,3122,TEMP,280.584696916
IC,3123,TEMP,280.528868433
IC,3124,TEMP,310.291398091
IC,3125,TEMP,310.392196596
IC,3126,TEMP,268.408370049
IC,3127,TEMP,268.588497229
IC,3128,TEMP,268.38629444
IC,3129,TEMP,268.564230104
IC,3130,TEMP,267.983169599
IC,3131,TEMP,267.960267391
IC,3132,TEMP,266.722210732
IC,3133,TEMP,266.705239303
IC,3134,TEMP,264.996190217
IC,3135,TEMP,264.989262479
IC,3136,TEMP,261.732708727
IC,3137,TEMP,261.727348219
IC,3138,TEMP,260.649722547
IC,3139,TEMP,260.645406068
IC,3140,TEMP,260.792313017
IC,3141,TEMP,260.789504044
IC,3142,TEMP,262.332862704
IC,3143,TEMP,262.331134985
IC,3144,TEMP,263.194150938
IC,3145,TEMP,263.190089068
IC,3146,TEMP,263.773259609
IC,3147,TEMP,263.768108858
IC,3148,TEMP,263.943042448
IC,3149,TEMP,263.938958729
IC,3150,TEMP,264.000170703
IC,3151,TEMP,263.995313986
IC,3152,TEMP,277.847726706
IC,3153,TEMP,277.770945946
IC,3154,TEMP,303.333196074
IC,3155,TEMP,303.667154517
IC,3156,TEMP,270.287702993
IC,3157,TEMP,270.406144866
IC,3158,TEMP,270.261737255
IC,3159,TEMP,270.387040931
IC,3160,TEMP,270.519303706
IC,3161,TEMP,270.510961722
IC,3162,TEMP,265.72877194
IC,3163,TEMP,265.726289802
IC,3164,TEMP,261.593137818
IC,3165,TEMP,261.595003416
IC,3166,TEMP,260.495508169
IC,3167,TEMP,260.496980655
IC,3168,TEMP,260.645558089
IC,3169,TEMP,260.648267926
IC,3170,TEMP,262.750352893
IC,3171,TEMP,262.751380239
IC,3172,TEMP,265.555843854
IC,3173,TEMP,265.560405221
IC,3174,TEMP,265.196476508
IC,3175,TEMP,265.192278968
IC,3176,TEMP,265.20854675
IC,3177,TEMP,265.207740673
IC,3178,TEMP,276.225641286
IC,3179,TEMP,276.101653717
IC,3180,TEMP,292.679239865
IC,3181,TEMP,292.46249967
IC,3182,TEMP,273.91071548
IC,3183,TEMP,274.735880578
IC,3184,TEMP,273.904282355
IC,3185,TEMP,274.741647807
IC,3186,TEMP,270.529028635
IC,3187,TEMP,270.515569405
IC,3188,TEMP,266.126322004
IC,3189,TEMP,266.127623973
IC,3190,TEMP,261.560836358
IC,3191,TEMP,261.56505864
IC,3192,TEMP,260.404323735
IC,3193,TEMP,260.408609759
IC,3194,TEMP,260.591850588
IC,3195,TEMP,260.59669823
IC,3196,TEMP,262.980734021
IC,3197,TEMP,262.98365112
IC,3198,TEMP,265.559100223
IC,3199,TEMP,265.566451411
IC,3200,TEMP,267.398362988
IC,3201,TEMP,267.391303337
IC,3202,TEMP,267.843878052
IC,3203,TEMP,267.839521056
IC,3204,TEMP,273.799688054
IC,3205,TEMP,273.782348699
IC,3206,TEMP,280.492685441
IC,3207,TEMP,284.767968548
IC,3208,TEMP,280.446854263
IC,3209,TEMP,280.423131041
IC,3210,TEMP,273.69656524
IC,3211,TEMP,273.702545052
IC,3212,TEMP,269.379940052
IC,3213,TEMP,269.377884555
IC,3214,TEMP,266.200927232
IC,3215,TEMP,266.206281356
IC,3216,TEMP,261.579338233
IC,3217,TEMP,261.585185126
IC,3218,TEMP,260.385982105
IC,3219,TEMP,260.392702304
IC,3220,TEMP,260.595996893
IC,3221,TEMP,260.602296064
IC,3222,TEMP,263.023890092
IC,3223,TEMP,263.029205744
IC,3224,TEMP,264.846448522
IC,3225,TEMP,264.850061399
IC,3226,TEMP,267.324508425
IC,3227,TEMP,267.321382873
IC,3228,TEMP,271.295766
IC,3229,TEMP,271.301277797
IC,3230,TEMP,272.220536894
IC,3231,TEMP,271.319189088
IC,3232,TEMP,280.465605298
IC,3233,TEMP,282.232246379
IC,3234,TEMP,280.453347931
IC,3235,TEMP,280.489897984
IC,3236,TEMP,274.404406247
IC,3237,TEMP,274.410073577
IC,3238,TEMP,269.298211187
IC,3239,TEMP,269.2997275
IC,3240,TEMP,266.187388054
IC,3241,TEMP,266.192706881
IC,3242,TEMP,261.610965455
IC,3243,TEMP,261.617169091
IC,3244,TEMP,260.390566126
IC,3245,TEMP,260.397374358
IC,3246,TEMP,260.615523214
IC,3247,TEMP,260.622357354
IC,3248,TEMP,263.016447992
IC,3249,TEMP,263.021756955
IC,3250,TEMP,264.78789025
IC,3251,TEMP,264.793410961
IC,3252,TEMP,267.729959063
IC,3253,TEMP,267.726813788
IC,3254,TEMP,271.313965403
IC,3255,TEMP,271.314299372
IC,3256,TEMP,271.321402926
IC,3257,TEMP,271.708755451
IC,3258,TEMP,280.463073215
IC,3259,TEMP,281.922518894
IC,3260,TEMP,280.453185282
IC,3261,TEMP,280.47184212
IC,3262,TEMP,271.312945782
IC,3263,TEMP,271.298156842
IC,3264,TEMP,271.320806826
IC,3265,TEMP,271.588139697
IC,3266,TEMP,280.671455069
IC,3267,TEMP,281.779325951
IC,3268,TEMP,279.952806946
IC,3269,TEMP,278.811741845
IC,3270,TEMP,274.959352319
IC,3271,TEMP,275.242403575
IC,3272,TEMP,269.578333523
IC,3273,TEMP,269.621490688
IC,3274,TEMP,265.650797759
IC,3275,TEMP,265.809606471
IC,3276,TEMP,260.004484938
IC,3277,TEMP,260.186130456
IC,3278,TEMP,258.180520943
IC,3279,TEMP,258.372673158
IC,3280,TEMP,258.461718509
IC,3281,TEMP,258.630940876
IC,3282,TEMP,261.678072902
IC,3283,TEMP,261.808373395
IC,3284,TEMP,264.13583431
IC,3285,TEMP,264.187202598
IC,3286,TEMP,267.633185032
IC,3287,TEMP,267.83583812
IC,3288,TEMP,270.199445977
IC,3289,TEMP,270.966817829
IC,3290,TEMP,271.191657202
IC,3291,TEMP,271.473305431
IC,3292,TEMP,288.130345079
IC,3293,TEMP,287.036712427
IC,3294,TEMP,286.729743112
IC,3295,TEMP,288.28460475
IC,3296,TEMP,286.375456412
IC,3297,TEMP,286.651750726
IC,3298,TEMP,286.219151012
IC,3299,TEMP,286.541563613
IC,3300,TEMP,285.813143457
IC,3301,TEMP,286.003762831
IC,3302,TEMP,285.135143693
IC,3303,TEMP,285.327847785
IC,3304,TEMP,284.564145795
IC,3305,TEMP,284.69625572
IC,3306,TEMP,283.049101447
IC,3307,TEMP,283.010515082
IC,3308,TEMP,281.699534153
IC,3309,TEMP,281.578355099
IC,3310,TEMP,280.464207993
IC,3311,TEMP,280.359010597
IC,3312,TEMP,279.308410967
IC,3313,TEMP,279.333015137
IC,3314,TEMP,278.943146223
IC,3315,TEMP,279.035381752
IC,3316,TEMP,278.636528757
IC,3317,TEMP,278.769273191
IC,3318,TEMP,278.511046952
IC,3319,TEMP,278.649228167
IC,3320,TEMP,278.468989382
IC,3321,TEMP,278.632533317
IC,3322,TEMP,278.574972599
IC,3323,TEMP,278.623953344
IC,3324,TEMP,278.821772659
IC,3325,TEMP,278.946725839
IC,3326,TEMP,286.716460386
IC,3327,TEMP,288.226438355
IC,3328,TEMP,286.651314584
IC,3329,TEMP,286.547033461
IC,3330,TEMP,278.60295856
IC,3331,TEMP,278.622633319
IC,3332,TEMP,278.591580992
IC,3333,TEMP,278.93615136
IC,3334,TEMP,286.699124971
IC,3335,TEMP,288.294812289
IC,3336,TEMP,286.634704188
IC,3337,TEMP,286.556493181
IC,3338,TEMP,278.547049016
IC,3339,TEMP,278.575320658
IC,3340,TEMP,278.536022746
IC,3341,TEMP,278.865083525
IC,3342,TEMP,286.644417252
IC,3343,TEMP,288.554187058
IC,3344,TEMP,278.698267091
IC,3345,TEMP,278.23739598
IC,3346,TEMP,286.653528897
IC,3347,TEMP,288.916192697
IC,3348,TEMP,279.469204213
IC,3349,TEMP,279.472567087
IC,3350,TEMP,279.479429012
IC,3351,TEMP,279.471962579
IC,3352,TEMP,274.468339722
IC,3353,TEMP,274.467242412
IC,3354,TEMP,274.469397959
IC,3355,TEMP,274.473857995
IC,3356,TEMP,278.330102454
IC,3357,TEMP,277.796164552
IC,3358,TEMP,286.618417875
IC,3359,TEMP,289.066629251
IC,3360,TEMP,277.930494987
IC,3361,TEMP,277.352185534
IC,3362,TEMP,286.155452602
IC,3363,TEMP,288.781376127
IC,3364,TEMP,276.62266041
IC,3365,TEMP,276.025252592
IC,3366,TEMP,285.184268375
IC,3367,TEMP,287.815620931
IC,3368,TEMP,275.342333922
IC,3369,TEMP,274.755499022
IC,3370,TEMP,283.743164641
IC,3371,TEMP,286.351068984
IC,3372,TEMP,274.152864131
IC,3373,TEMP,273.58609047
IC,3374,TEMP,281.854401501
IC,3375,TEMP,284.24160656
IC,3376,TEMP,273.038592126
IC,3377,TEMP,272.538940644
IC,3378,TEMP,281.135721395
IC,3379,TEMP,283.343442993
IC,3380,TEMP,272.687243402
IC,3381,TEMP,272.223208945
IC,3382,TEMP,280.393714842
IC,3383,TEMP,282.233020223
IC,3384,TEMP,270.682652908
IC,3385,TEMP,270.691357118
IC,3386,TEMP,270.684917307
IC,3387,TEMP,270.680497717
IC,3388,TEMP,265.680080907
IC,3389,TEMP,265.674414821
IC,3390,TEMP,265.672908545
IC,3391,TEMP,265.675006938
IC,3392,TEMP,272.306119997
IC,3393,TEMP,271.925999618
IC,3394,TEMP,279.952334841
IC,3395,TEMP,281.596349492
IC,3396,TEMP,272.09567117
IC,3397,TEMP,271.723616867
IC,3398,TEMP,279.876605918
IC,3399,TEMP,281.381422863
IC,3400,TEMP,279.867655561
IC,3401,TEMP,279.792487778
IC,3402,TEMP,279.751244893
IC,3403,TEMP,279.661928813
IC,3404,TEMP,271.705581078
IC,3405,TEMP,271.71486262
IC,3406,TEMP,271.678016263
IC,3407,TEMP,271.672482129
IC,3408,TEMP,271.685066684
IC,3409,TEMP,272.019829948
IC,3410,TEMP,279.835058101
IC,3411,TEMP,281.343468225
IC,3412,TEMP,279.741445572
IC,3413,TEMP,279.607914197
IC,3414,TEMP,271.655633678
IC,3415,TEMP,271.650126769
IC,3416,TEMP,271.661987755
IC,3417,TEMP,271.931533976
IC,3418,TEMP,280.064478277
IC,3419,TEMP,281.193809903
IC,3420,TEMP,279.382736836
IC,3421,TEMP,279.150189159
IC,3422,TEMP,278.912311233
IC,3423,TEMP,278.504672625
IC,3424,TEMP,277.915272758
IC,3425,TEMP,277.349387569
IC,3426,TEMP,276.985423787
IC,3427,TEMP,276.341654262
IC,3428,TEMP,274.645620992
IC,3429,TEMP,273.913527192
IC,3430,TEMP,272.977617805
IC,3431,TEMP,272.258073504
IC,3432,TEMP,271.969360324
IC,3433,TEMP,271.297406308
IC,3434,TEMP,271.575152713
IC,3435,TEMP,271.029080848
IC,3436,TEMP,271.569229606
IC,3437,TEMP,271.095099396
IC,3438,TEMP,271.617846548
IC,3439,TEMP,271.26098751
IC,3440,TEMP,271.372781816
IC,3441,TEMP,271.40585081
IC,3442,TEMP,271.529004821
IC,3443,TEMP,271.807855591
IC,3444,TEMP,287.930644849
IC,3445,TEMP,286.834418814
IC,3446,TEMP,286.559662748
IC,3447,TEMP,288.117248543
IC,3448,TEMP,286.062351531
IC,3449,TEMP,286.438564128
IC,3450,TEMP,285.899409194
IC,3451,TEMP,286.261016744
IC,3452,TEMP,285.587067379
IC,3453,TEMP,285.985385283
IC,3454,TEMP,284.9631251
IC,3455,TEMP,285.323598664
IC,3456,TEMP,284.32228546
IC,3457,TEMP,284.688273945
IC,3458,TEMP,282.639935769
IC,3459,TEMP,282.994461912
IC,3460,TEMP,281.213022111
IC,3461,TEMP,281.558623008
IC,3462,TEMP,280.016193521
IC,3463,TEMP,280.3409223
IC,3464,TEMP,279.025921761
IC,3465,TEMP,279.322450027
IC,3466,TEMP,278.74802217
IC,3467,TEMP,279.028324415
IC,3468,TEMP,278.499070026
IC,3469,TEMP,278.76453673
IC,3470,TEMP,278.390307749
IC,3471,TEMP,278.64881062
IC,3472,TEMP,278.345735128
IC,3473,TEMP,278.5893083
IC,3474,TEMP,278.433819106
IC,3475,TEMP,278.561287191
IC,3476,TEMP,278.682979671
IC,3477,TEMP,278.805747482
IC,3478,TEMP,286.556961124
IC,3479,TEMP,288.077938157
IC,3480,TEMP,286.459014872
IC,3481,TEMP,286.283295499
IC,3482,TEMP,286.011469082
IC,3483,TEMP,285.990874909
IC,3484,TEMP,285.330933157
IC,3485,TEMP,285.31926947
IC,3486,TEMP,284.697591835
IC,3487,TEMP,284.68642662
IC,3488,TEMP,283.004614369
IC,3489,TEMP,282.992528289
IC,3490,TEMP,281.569159919
IC,3491,TEMP,281.556795514
IC,3492,TEMP,280.35068178
IC,3493,TEMP,280.339533397
IC,3494,TEMP,279.330296702
IC,3495,TEMP,279.321110012
IC,3496,TEMP,279.036585678
IC,3497,TEMP,279.027657141
IC,3498,TEMP,278.764905175
IC,3499,TEMP,278.755427866
IC,3500,TEMP,278.613314632
IC,3501,TEMP,278.539005401
IC,3502,TEMP,278.507454142
IC,3503,TEMP,278.793143416
IC,3504,TEMP,286.566759771
IC,3505,TEMP,288.067818739
IC,3506,TEMP,286.495167981
IC,3507,TEMP,286.366955264
IC,3508,TEMP,286.0173539
IC,3509,TEMP,285.973108493
IC,3510,TEMP,285.336733201
IC,3511,TEMP,285.304776571
IC,3512,TEMP,284.702479399
IC,3513,TEMP,284.672137527
IC,3514,TEMP,283.009292972
IC,3515,TEMP,282.976493034
IC,3516,TEMP,281.573551549
IC,3517,TEMP,281.540171328
IC,3518,TEMP,280.354619487
IC,3519,TEMP,280.324584804
IC,3520,TEMP,279.333939853
IC,3521,TEMP,279.309721835
IC,3522,TEMP,279.040403539
IC,3523,TEMP,279.014129177
IC,3524,TEMP,278.768714367
IC,3525,TEMP,278.753285448
IC,3526,TEMP,278.511514411
IC,3527,TEMP,278.424916936
IC,3528,TEMP,278.401383914
IC,3529,TEMP,278.703510202
IC,3530,TEMP,286.591501703
IC,3531,TEMP,288.015228296
IC,3532,TEMP,286.58615163
IC,3533,TEMP,286.565890607
IC,3534,TEMP,286.586964405
IC,3535,TEMP,286.552843866
IC,3536,TEMP,278.230576498
IC,3537,TEMP,278.231780768
IC,3538,TEMP,278.220646342
IC,3539,TEMP,278.206652671
IC,3540,TEMP,278.217724741
IC,3541,TEMP,278.492078653
IC,3542,TEMP,286.588463672
IC,3543,TEMP,287.930467485
IC,3544,TEMP,286.590897098
IC,3545,TEMP,286.574903138
IC,3546,TEMP,286.588693514
IC,3547,TEMP,286.547490273
IC,3548,TEMP,279.548873494
IC,3549,TEMP,279.525861403
IC,3550,TEMP,279.459349782
IC,3551,TEMP,279.536185963
IC,3552,TEMP,274.505826684
IC,3553,TEMP,274.510730546
IC,3554,TEMP,274.493861122
IC,3555,TEMP,274.450051661
IC,3556,TEMP,277.780496202
IC,3557,TEMP,277.782100819
IC,3558,TEMP,277.772132859
IC,3559,TEMP,277.761944328
IC,3560,TEMP,277.778652608
IC,3561,TEMP,278.047964351
IC,3562,TEMP,286.542330379
IC,3563,TEMP,287.850679562
IC,3564,TEMP,286.545914506
IC,3565,TEMP,286.529455251
IC,3566,TEMP,286.542834017
IC,3567,TEMP,286.505551905
IC,3568,TEMP,277.335404482
IC,3569,TEMP,277.336592568
IC,3570,TEMP,277.326910428
IC,3571,TEMP,277.315032523
IC,3572,TEMP,277.33177608
IC,3573,TEMP,277.598366965
IC,3574,TEMP,286.068065523
IC,3575,TEMP,287.311436473
IC,3576,TEMP,286.075386825
IC,3577,TEMP,286.056073027
IC,3578,TEMP,286.07253951
IC,3579,TEMP,286.028059343
IC,3580,TEMP,276.007685926
IC,3581,TEMP,276.010107452
IC,3582,TEMP,275.996633012
IC,3583,TEMP,275.981186051
IC,3584,TEMP,276.002790461
IC,3585,TEMP,276.246992696
IC,3586,TEMP,285.096311777
IC,3587,TEMP,286.3323597
IC,3588,TEMP,285.104153583
IC,3589,TEMP,285.083436898
IC,3590,TEMP,285.101971681
IC,3591,TEMP,285.053511708
IC,3592,TEMP,274.738642063
IC,3593,TEMP,274.741611199
IC,3594,TEMP,274.726610998
IC,3595,TEMP,274.709594725
IC,3596,TEMP,274.733446657
IC,3597,TEMP,274.975837667
IC,3598,TEMP,283.656769924
IC,3599,TEMP,284.898387956
IC,3600,TEMP,283.664418316
IC,3601,TEMP,283.644444213
IC,3602,TEMP,283.662013686
IC,3603,TEMP,283.615493334
IC,3604,TEMP,273.570275436
IC,3605,TEMP,273.57319101
IC,3606,TEMP,273.558574732
IC,3607,TEMP,273.542196903
IC,3608,TEMP,273.565119041
IC,3609,TEMP,273.806958366
IC,3610,TEMP,281.780364244
IC,3611,TEMP,283.067649836
IC,3612,TEMP,281.785186385
IC,3613,TEMP,281.765733205
IC,3614,TEMP,281.783842948
IC,3615,TEMP,281.738372018
IC,3616,TEMP,272.526055915
IC,3617,TEMP,272.529040653
IC,3618,TEMP,272.514602358
IC,3619,TEMP,272.4993091
IC,3620,TEMP,272.521269757
IC,3621,TEMP,272.764828971
IC,3622,TEMP,281.071723714
IC,3623,TEMP,282.402590838
IC,3624,TEMP,281.077676374
IC,3625,TEMP,281.056922557
IC,3626,TEMP,281.078130459
IC,3627,TEMP,281.02041005
IC,3628,TEMP,272.212573527
IC,3629,TEMP,272.216865387
IC,3630,TEMP,272.199486342
IC,3631,TEMP,272.180318587
IC,3632,TEMP,272.207220914
IC,3633,TEMP,272.462250463
IC,3634,TEMP,280.353031034
IC,3635,TEMP,281.781883754
IC,3636,TEMP,280.33196845
IC,3637,TEMP,280.314330369
IC,3638,TEMP,280.33417379
IC,3639,TEMP,280.305606514
IC,3640,TEMP,270.793722964
IC,3641,TEMP,270.702386298
IC,3642,TEMP,270.765550345
IC,3643,TEMP,270.796686844
IC,3644,TEMP,265.686571788
IC,3645,TEMP,265.744739667
IC,3646,TEMP,265.751840552
IC,3647,TEMP,265.738888175
IC,3648,TEMP,271.916028137
IC,3649,TEMP,271.918601442
IC,3650,TEMP,271.908911427
IC,3651,TEMP,271.899337116
IC,3652,TEMP,271.918967531
IC,3653,TEMP,272.194131485
IC,3654,TEMP,280.032648754
IC,3655,TEMP,281.508699551
IC,3656,TEMP,279.919240577
IC,3657,TEMP,279.652014877
IC,3658,TEMP,271.787123948
IC,3659,TEMP,271.735129575
IC,3660,TEMP,271.805002673
IC,3661,TEMP,272.076402715
IC,3662,TEMP,279.849981563
IC,3663,TEMP,281.373713249
IC,3664,TEMP,279.701388446
IC,3665,TEMP,279.415739551
IC,3666,TEMP,278.946539098
IC,3667,TEMP,278.940110557
IC,3668,TEMP,278.893043752
IC,3669,TEMP,278.921569422
IC,3670,TEMP,277.942834774
IC,3671,TEMP,277.933329813
IC,3672,TEMP,277.904233223
IC,3673,TEMP,277.919195002
IC,3674,TEMP,277.016959793
IC,3675,TEMP,277.00920752
IC,3676,TEMP,276.983124191
IC,3677,TEMP,276.997911933
IC,3678,TEMP,274.681823408
IC,3679,TEMP,274.673310232
IC,3680,TEMP,274.648070282
IC,3681,TEMP,274.662468963
IC,3682,TEMP,273.013596957
IC,3683,TEMP,273.00505966
IC,3684,TEMP,272.979107637
IC,3685,TEMP,272.994157204
IC,3686,TEMP,272.002623842
IC,3687,TEMP,271.994825307
IC,3688,TEMP,271.971589672
IC,3689,TEMP,271.98491035
IC,3690,TEMP,271.601743303
IC,3691,TEMP,271.595207374
IC,3692,TEMP,271.574036397
IC,3693,TEMP,271.585899917
IC,3694,TEMP,271.593188926
IC,3695,TEMP,271.58565674
IC,3696,TEMP,271.560397109
IC,3697,TEMP,271.5742852
IC,3698,TEMP,271.638136138
IC,3699,TEMP,271.633815116
IC,3700,TEMP,271.6137823
IC,3701,TEMP,271.626581051
IC,3702,TEMP,271.684125739
IC,3703,TEMP,271.718475041
IC,3704,TEMP,271.736903972
IC,3705,TEMP,272.019474434
IC,3706,TEMP,279.759421059
IC,3707,TEMP,281.276022397
IC,3708,TEMP,279.595199999
IC,3709,TEMP,279.333781012
IC,3710,TEMP,278.904393576
IC,3711,TEMP,277.928790588
IC,3712,TEMP,277.002853429
IC,3713,TEMP,274.669115627
IC,3714,TEMP,273.00120346
IC,3715,TEMP,271.991031484
IC,3716,TEMP,271.590339961
IC,3717,TEMP,271.580165221
IC,3718,TEMP,271.623913728
IC,3719,TEMP,271.659628083
IC,3720,TEMP,271.682490437
IC,3721,TEMP,271.69660946
IC,3722,TEMP,271.891164893
IC,3723,TEMP,279.949426751
IC,3724,TEMP,281.0912799
IC,3725,TEMP,279.129797417
IC,3726,TEMP,278.903419925
IC,3727,TEMP,278.462417596
IC,3728,TEMP,277.562694204
IC,3729,TEMP,276.659491266
IC,3730,TEMP,274.371806129
IC,3731,TEMP,272.725206269
IC,3732,TEMP,271.722377515
IC,3733,TEMP,271.314017399
IC,3734,TEMP,271.290965065
IC,3735,TEMP,271.310935822
IC,3736,TEMP,271.327406158
IC,3737,TEMP,271.344658747
IC,3738,TEMP,271.475826438
IC,3739,TEMP,271.767283461
IC,3740,TEMP,287.793127149
IC,3741,TEMP,286.577638192
IC,3742,TEMP,286.800844125
IC,3743,TEMP,287.891907744
IC,3744,TEMP,285.878190807
IC,3745,TEMP,286.016958766
IC,3746,TEMP,285.670517536
IC,3747,TEMP,285.85381441
IC,3748,TEMP,285.378875472
IC,3749,TEMP,285.556669254
IC,3750,TEMP,284.765026388
IC,3751,TEMP,284.94105408
IC,3752,TEMP,284.136372199
IC,3753,TEMP,284.305972391
IC,3754,TEMP,282.482567833
IC,3755,TEMP,282.645217508
IC,3756,TEMP,281.072852373
IC,3757,TEMP,281.228042901
IC,3758,TEMP,279.879524116
IC,3759,TEMP,280.028150795
IC,3760,TEMP,278.87737617
IC,3761,TEMP,279.019487025
IC,3762,TEMP,278.591936681
IC,3763,TEMP,278.733183229
IC,3764,TEMP,278.338408031
IC,3765,TEMP,278.474745141
IC,3766,TEMP,278.22657082
IC,3767,TEMP,278.35685366
IC,3768,TEMP,278.185258289
IC,3769,TEMP,278.306745972
IC,3770,TEMP,278.264742798
IC,3771,TEMP,278.393690979
IC,3772,TEMP,278.517986215
IC,3773,TEMP,278.642988288
IC,3774,TEMP,286.799198942
IC,3775,TEMP,287.900506084
IC,3776,TEMP,286.107951008
IC,3777,TEMP,285.935531616
IC,3778,TEMP,285.557109105
IC,3779,TEMP,284.881215218
IC,3780,TEMP,284.287550337
IC,3781,TEMP,282.606336367
IC,3782,TEMP,281.181405275
IC,3783,TEMP,279.991803718
IC,3784,TEMP,279.00402844
IC,3785,TEMP,278.691557461
IC,3786,TEMP,278.454696832
IC,3787,TEMP,278.348991176
IC,3788,TEMP,278.305528094
IC,3789,TEMP,278.386339595
IC,3790,TEMP,278.630746597
IC,3791,TEMP,286.808853969
IC,3792,TEMP,287.8955829
IC,3793,TEMP,286.099871984
IC,3794,TEMP,285.689230236
IC,3795,TEMP,284.421309527
IC,3796,TEMP,283.591491119
IC,3797,TEMP,283.3498715
IC,3798,TEMP,281.507270575
IC,3799,TEMP,280.067496794
IC,3800,TEMP,278.983487853
IC,3801,TEMP,278.239667042
IC,3802,TEMP,277.70940102
IC,3803,TEMP,277.652983052
IC,3804,TEMP,278.080207392
IC,3805,TEMP,278.182301047
IC,3806,TEMP,278.298938293
IC,3807,TEMP,278.543109841
IC,3808,TEMP,286.816219299
IC,3809,TEMP,287.895538808
IC,3810,TEMP,286.094034932
IC,3811,TEMP,284.800545694
IC,3812,TEMP,281.726370312
IC,3813,TEMP,280.321314587
IC,3814,TEMP,280.41955441
IC,3815,TEMP,280.410042607
IC,3816,TEMP,277.857702792
IC,3817,TEMP,277.983704561
IC,3818,TEMP,276.391616644
IC,3819,TEMP,276.48944621
IC,3820,TEMP,275.62925671
IC,3821,TEMP,275.745004899
IC,3822,TEMP,275.850350718
IC,3823,TEMP,275.818243961
IC,3824,TEMP,275.243367495
IC,3825,TEMP,275.770378349
IC,3826,TEMP,277.284149774
IC,3827,TEMP,277.922414392
IC,3828,TEMP,278.102865715
IC,3829,TEMP,278.351502671
IC,3830,TEMP,286.789847009
IC,3831,TEMP,287.860778727
IC,3832,TEMP,286.053716404
IC,3833,TEMP,284.535398699
IC,3834,TEMP,280.686453858
IC,3835,TEMP,278.164776558
IC,3836,TEMP,275.71000523
IC,3837,TEMP,275.714400119
IC,3838,TEMP,271.956170891
IC,3839,TEMP,271.771518693
IC,3840,TEMP,270.283738642
IC,3841,TEMP,270.164622953
IC,3842,TEMP,270.160263713
IC,3843,TEMP,269.995594369
IC,3844,TEMP,271.803918112
IC,3845,TEMP,271.794325446
IC,3846,TEMP,273.449404641
IC,3847,TEMP,274.822190916
IC,3848,TEMP,276.710751327
IC,3849,TEMP,277.453622271
IC,3850,TEMP,277.671520017
IC,3851,TEMP,277.922532442
IC,3852,TEMP,286.731113911
IC,3853,TEMP,287.802567472
IC,3854,TEMP,286.050327721
IC,3855,TEMP,284.953007288
IC,3856,TEMP,281.52191018
IC,3857,TEMP,281.500142958
IC,3858,TEMP,276.101567955
IC,3859,TEMP,276.093073727
IC,3860,TEMP,272.574132958
IC,3861,TEMP,272.485460093
IC,3862,TEMP,267.033705132
IC,3863,TEMP,266.964510632
IC,3864,TEMP,265.237634067
IC,3865,TEMP,265.174536181
IC,3866,TEMP,265.55564145
IC,3867,TEMP,265.492786239
IC,3868,TEMP,268.876380144
IC,3869,TEMP,268.798873335
IC,3870,TEMP,271.061247342
IC,3871,TEMP,271.062419419
IC,3872,TEMP,274.326043271
IC,3873,TEMP,274.330427042
IC,3874,TEMP,276.370363808
IC,3875,TEMP,277.019976226
IC,3876,TEMP,277.226169382
IC,3877,TEMP,277.480104004
IC,3878,TEMP,286.218255127
IC,3879,TEMP,287.288649742
IC,3880,TEMP,285.523451285
IC,3881,TEMP,284.142614523
IC,3882,TEMP,279.545997152
IC,3883,TEMP,279.73927736
IC,3884,TEMP,272.466115264
IC,3885,TEMP,272.263600063
IC,3886,TEMP,266.842974142
IC,3887,TEMP,266.774458093
IC,3888,TEMP,258.160831154
IC,3889,TEMP,258.071962476
IC,3890,TEMP,255.678077626
IC,3891,TEMP,255.607804316
IC,3892,TEMP,257.002683914
IC,3893,TEMP,256.92364765
IC,3894,TEMP,263.038628689
IC,3895,TEMP,262.977908589
IC,3896,TEMP,266.840912611
IC,3897,TEMP,266.688148501
IC,3898,TEMP,271.636941934
IC,3899,TEMP,271.740651826
IC,3900,TEMP,274.7085649
IC,3901,TEMP,275.640655189
IC,3902,TEMP,275.87918781
IC,3903,TEMP,276.137539456
IC,3904,TEMP,285.240301072
IC,3905,TEMP,286.315290316
IC,3906,TEMP,284.526537902
IC,3907,TEMP,283.023516776
IC,3908,TEMP,278.070676134
IC,3909,TEMP,278.232230634
IC,3910,TEMP,270.289903616
IC,3911,TEMP,270.147873767
IC,3912,TEMP,264.228124868
IC,3913,TEMP,264.167394232
IC,3914,TEMP,254.516109546
IC,3915,TEMP,254.445464793
IC,3916,TEMP,251.744394877
IC,3917,TEMP,251.690369004
IC,3918,TEMP,253.378750747
IC,3919,TEMP,253.316688567
IC,3920,TEMP,260.328177721
IC,3921,TEMP,260.275619055
IC,3922,TEMP,264.550469798
IC,3923,TEMP,264.447182237
IC,3924,TEMP,269.932375591
IC,3925,TEMP,270.038147744
IC,3926,TEMP,273.321971559
IC,3927,TEMP,274.352668171
IC,3928,TEMP,274.60701764
IC,3929,TEMP,274.871055122
IC,3930,TEMP,283.803434315
IC,3931,TEMP,284.886014832
IC,3932,TEMP,283.098727058
IC,3933,TEMP,281.652144014
IC,3934,TEMP,276.801001406
IC,3935,TEMP,277.040954241
IC,3936,TEMP,269.382364408
IC,3937,TEMP,269.195965375
IC,3938,TEMP,263.473110819
IC,3939,TEMP,263.416029004
IC,3940,TEMP,254.518972942
IC,3941,TEMP,254.442653132
IC,3942,TEMP,251.984441241
IC,3943,TEMP,251.926248468
IC,3944,TEMP,253.361762861
IC,3945,TEMP,253.294776121
IC,3946,TEMP,259.652464198
IC,3947,TEMP,259.602544393
IC,3948,TEMP,263.73232043
IC,3949,TEMP,263.59482953
IC,3950,TEMP,268.863282849
IC,3951,TEMP,269.012732788
IC,3952,TEMP,272.18945585
IC,3953,TEMP,273.187848464
IC,3954,TEMP,273.435962467
IC,3955,TEMP,273.705161565
IC,3956,TEMP,281.942429408
IC,3957,TEMP,283.036813295
IC,3958,TEMP,281.224371508
IC,3959,TEMP,279.883249998
IC,3960,TEMP,275.745216795
IC,3961,TEMP,275.693032727
IC,3962,TEMP,269.428080733
IC,3963,TEMP,269.396475195
IC,3964,TEMP,265.625068296
IC,3965,TEMP,265.557796422
IC,3966,TEMP,259.854166891
IC,3967,TEMP,259.800076268
IC,3968,TEMP,257.910677375
IC,3969,TEMP,257.864661245
IC,3970,TEMP,258.35875209
IC,3971,TEMP,258.310665633
IC,3972,TEMP,261.895907436
IC,3973,TEMP,261.839323658
IC,3974,TEMP,264.351961564
IC,3975,TEMP,264.329556237
IC,3976,TEMP,268.502567653
IC,3977,TEMP,268.477461688
IC,3978,TEMP,271.250490573
IC,3979,TEMP,272.142907312
IC,3980,TEMP,272.385100978
IC,3981,TEMP,272.659523048
IC,3982,TEMP,281.257088769
IC,3983,TEMP,282.354420619
IC,3984,TEMP,280.438078159
IC,3985,TEMP,278.276476226
IC,3986,TEMP,272.804145892
IC,3987,TEMP,269.628424914
IC,3988,TEMP,267.940243547
IC,3989,TEMP,267.938971998
IC,3990,TEMP,264.009249922
IC,3991,TEMP,263.856711792
IC,3992,TEMP,262.133688029
IC,3993,TEMP,262.034830471
IC,3994,TEMP,262.188425044
IC,3995,TEMP,262.05521208
IC,3996,TEMP,263.999923247
IC,3997,TEMP,263.9842304
IC,3998,TEMP,264.900636238
IC,3999,TEMP,266.918972169
IC,4000,TEMP,270.405152445
IC,4001,TEMP,271.781373861
IC,4002,TEMP,272.079436711
IC,4003,TEMP,272.354088727
IC,4004,TEMP,280.580414091
IC,4005,TEMP,281.691626725
IC,4006,TEMP,279.777043581
IC,4007,TEMP,277.981381378
IC,4008,TEMP,273.69794661
IC,4009,TEMP,271.811308695
IC,4010,TEMP,272.403981655
IC,4011,TEMP,272.419520578
IC,4012,TEMP,269.481187646
IC,4013,TEMP,269.646907293
IC,4014,TEMP,267.775775661
IC,4015,TEMP,267.906642083
IC,4016,TEMP,267.2244793
IC,4017,TEMP,267.379547362
IC,4018,TEMP,267.790348172
IC,4019,TEMP,267.784247057
IC,4020,TEMP,266.71324511
IC,4021,TEMP,267.714030522
IC,4022,TEMP,270.412772323
IC,4023,TEMP,271.543318625
IC,4024,TEMP,271.801821552
IC,4025,TEMP,272.079265229
IC,4026,TEMP,280.255498773
IC,4027,TEMP,281.38351141
IC,4028,TEMP,279.462418664
IC,4029,TEMP,278.851160927
IC,4030,TEMP,277.041533838
IC,4031,TEMP,275.839288922
IC,4032,TEMP,275.54155348
IC,4033,TEMP,273.134678644
IC,4034,TEMP,271.456758589
IC,4035,TEMP,270.583954256
IC,4036,TEMP,270.383454573
IC,4037,TEMP,269.911865455
IC,4038,TEMP,270.221508763
IC,4039,TEMP,271.180646392
IC,4040,TEMP,271.480267522
IC,4041,TEMP,271.677795983
IC,4042,TEMP,271.96003997
IC,4043,TEMP,280.098540187
IC,4044,TEMP,281.236137105
IC,4045,TEMP,279.333206442
IC,4046,TEMP,279.046972792
IC,4047,TEMP,278.43442744
IC,4048,TEMP,277.417460347
IC,4049,TEMP,276.559608014
IC,4050,TEMP,274.240677255
IC,4051,TEMP,272.581988661
IC,4052,TEMP,271.600047684
IC,4053,TEMP,271.227093994
IC,4054,TEMP,271.172725326
IC,4055,TEMP,271.270647416
IC,4056,TEMP,271.396104356
IC,4057,TEMP,271.465126704
IC,4058,TEMP,271.616671528
IC,4059,TEMP,271.893772392
IC,4060,TEMP,279.958917871
IC,4061,TEMP,281.100367668
IC,4062,TEMP,279.117946493
IC,4063,TEMP,278.881250817
IC,4064,TEMP,278.432103375
IC,4065,TEMP,277.513865483
IC,4066,TEMP,276.596971329
IC,4067,TEMP,274.296873021
IC,4068,TEMP,272.650639712
IC,4069,TEMP,271.653378713
IC,4070,TEMP,271.260281497
IC,4071,TEMP,271.248410984
IC,4072,TEMP,271.286137088
IC,4073,TEMP,271.317380277
IC,4074,TEMP,271.339361776
IC,4075,TEMP,271.478999127
IC,4076,TEMP,271.775532694
IC,4077,TEMP,279.737488819
IC,4078,TEMP,280.983355297
IC,4079,TEMP,278.980011911
IC,4080,TEMP,278.702504337
IC,4081,TEMP,278.265898949
IC,4082,TEMP,277.356523736
IC,4083,TEMP,276.448846155
IC,4084,TEMP,274.159566696
IC,4085,TEMP,272.52181055
IC,4086,TEMP,271.529070494
IC,4087,TEMP,271.137757194
IC,4088,TEMP,271.123703154
IC,4089,TEMP,271.158965718
IC,4090,TEMP,271.189118693
IC,4091,TEMP,271.215761694
IC,4092,TEMP,271.349222062
IC,4093,TEMP,271.628034584
SPCTEMP,2,2.7
HEMIOPT,20,1E-6
RADOPT,,1E-4,2,1000,1E-5,1
AUTOTS,ON
DELTIM,10,1,10
OUTRES,ALL,NONE
NEQIT,100
SAVE
OUTRES,NSOL,ALL
TIME,11160
SOLVE
FINISH
/POST1
SET,LAST
SAVE
FINISH
/EXIT,NOSAVE
